generated by phonopy
   1.0
    13.9373960412018132    0.0000000000000000    0.0000000000000000
     0.0000000000000000   25.4057404610131385    0.0000000000000000
     0.0000000000000000    0.0000000000000000   20.1451492056119186
Mo Te
  32   64
Direct
  0.0105581675471147  0.1870714767347467  0.5044182519134225
  0.2533707212201662  0.1862323594266863  0.5045789661077733
  0.4955430300759155  0.1846568687357015  0.5047785428979010
  0.7385650629915306  0.1826448928475393  0.5049789936610536
  0.9823745989500767  0.4295282368288730  0.5052062303433067
  0.2326205940544812  0.4281509286749342  0.5052528936846068
  0.4861760458697097  0.4275755143079433  0.5052101402738604
  0.7423641887376218  0.4279115214906198  0.5050861080473029
  0.0044712400545166  0.6800706369493880  0.5047877258963022
  0.2614492071389015  0.6820826128375502  0.5045872751331495
  0.5162492227729886  0.6841481025716025  0.5044241053769012
  0.7679576236845674  0.6858739486593630  0.5043292753208584
  0.0138382242607225  0.9371519913771463  0.5043561285203427
  0.2576500813928104  0.9368159841944697  0.5044801607469003
  0.5000071350652160  0.9356325130500612  0.5046618627640872
  0.7423641887376218  0.9338268468181905  0.5048666483388068
  0.1098050175140663  0.0209093952018488  0.4955419815361046
  0.3645825666717035  0.0230600337252671  0.4953864958039805
  0.6213443039611997  0.0251342094558923  0.4951907059546739
  0.8788031604459713  0.0267371115577502  0.4949918797822965
  0.1385574690193487  0.2776196018630358  0.4947622453446535
  0.3917061746753688  0.2769763854920058  0.4947113499146599
  0.6416762010203177  0.2755112448457419  0.4947486616160881
  0.8884732534163948  0.2735030634319574  0.4948670783197334
  0.1286690660216219  0.5201824490977404  0.4951588027390069
  0.3712102095368502  0.5185795469958825  0.4953576289113843
  0.6144739965705804  0.5177530243580762  0.4955216456610884
  0.8597426376092455  0.5178602063756088  0.4956196330730906
  0.1083371689625036  0.7698054137078908  0.4956008470775927
  0.3615401165664266  0.7718135951216751  0.4954824303739475
  0.6173063701906971  0.7739825682143144  0.4953054488015315
  0.8745383471280146  0.7758994778611117  0.4951035900761570
  0.0017855923097656  0.0840299156136962  0.5750191071012969
  0.2516673348684882  0.0837931587525716  0.5745671871060378
  0.5012322665410002  0.0837317456341453  0.5738820719894522
  0.7505632007975130  0.0838573659934133  0.5730941706016313
  0.9993531591462235  0.3343641973653303  0.5720068346454097
  0.2487063354125174  0.3347897432145198  0.5716122858742294
  0.4983063148843433  0.3352009370449873  0.5715469953015287
  0.7482292398271819  0.3355195097990262  0.5718233907198076
  0.9987736118280570  0.5856969414438835  0.5728020773701961
  0.2494426775715440  0.5855713210846155  0.5735899787580171
  0.5002183868132269  0.5852825785673769  0.5743306926221834
  0.7509530864831848  0.5848856748450557  0.5748832271192311
  0.0016995634847139  0.8342277500330415  0.5751371540581195
  0.2517766385418751  0.8339091772790026  0.5748607586398407
  0.5015160972072807  0.8337438646174042  0.5742952879638671
  0.7509675324544663  0.8337632786347842  0.5735483770521517
  0.1210986119051381  0.2064164174174881  0.6016335550506352
  0.3744292972247113  0.2065475890058878  0.6013545759352471
  0.6278693755876418  0.2068947158667398  0.6012950766695336
  0.8807640421988338  0.2073917238270131  0.6014663826944829
  0.1329550289472456  0.4582438044271525  0.6021101528682771
  0.3824430046226492  0.4586734124178663  0.6026389305111285
  0.6305149970339368  0.4589143339209229  0.6031427163823236
  0.8775379945112797  0.4589207105171820  0.6035256169092875
  0.1221386320741665  0.7084695446737156  0.6037201911232007
  0.3692439654629746  0.7079725367134423  0.6035488850982513
  0.6174456985105521  0.7074202510788018  0.6031793811812888
  0.8670861239495290  0.7069178130732529  0.6026820129261184
  0.1194930106278715  0.9564499266195324  0.6018725514104107
  0.3724700131505285  0.9564435500232734  0.6014896508834469
  0.6259293503973354  0.9566729320927344  0.6013005192442413
  0.8792125517237070  0.9570944108925912  0.6013411569239443
  0.9945117505467383  0.2461873901995840  0.3970536414195223
  0.2428049611995583  0.2464471962295837  0.3975224637010154
  0.4924683475785294  0.2468965300537941  0.3979637245262450
  0.7435659827046386  0.2474498628232616  0.3982934317084740
  0.9976037042835620  0.4982756534788471  0.3984463933694928
  0.2508969885376891  0.4986203470152436  0.3982830280978367
  0.5040201643313763  0.4987409180144368  0.3979473310590473
  0.7563787479727200  0.4986144162816660  0.3975032008064445
  0.0075382680160144  0.7479892664663131  0.3967916094884021
  0.2564406328899052  0.7474359336968457  0.3964619023061731
  0.5041176793571952  0.7468839266033958  0.3963065071756561
  0.7510115720872695  0.7464383174702498  0.3963550029220587
  0.9959864512631674  0.9961448785056705  0.3968080029555998
  0.2436278676218238  0.9962713802384412  0.3972521332082026
  0.4924828228471280  0.9966208756176239  0.3977201583041605
  0.7427692715116125  0.9971268396324462  0.3981229915876688
  0.1247002872198979  0.1198229097181768  0.4259008140618588
  0.3755126019248283  0.1194962373068029  0.4266434398591486
  0.6262334899910812  0.1193237773583577  0.4274100103731317
  0.8767257333344420  0.1193383569160914  0.4280546120531912
  0.1268327500911105  0.3697202671553214  0.4285415110522491
  0.3764568847450140  0.3701210052558679  0.4284263996328209
  0.6258098524016344  0.3705570338048686  0.4279958538560962
  0.8750148130115103  0.3709453565578887  0.4273318263433132
  0.1238310770279799  0.6212890365105146  0.4261284609719215
  0.3733388336846191  0.6212744569527808  0.4254838592918620
  0.6231689315639338  0.6210756130478348  0.4250839237294793
  0.8733537108371596  0.6207303539167420  0.4250047803773647
  0.1242547146174267  0.8700557800640036  0.4255426174889570
  0.3750497540075508  0.8696674573109836  0.4262066450017400
  0.6258414679600919  0.8694007559959429  0.4269777593393107
  0.8764791569741158  0.8693064416194088  0.4277091820528845
