generated by phonopy
   1.0
    13.9373960412018132    0.0000000000000000    0.0000000000000000
     0.0000000000000000   25.4057404610131385    0.0000000000000000
     0.0000000000000000    0.0000000000000000   20.1451492056119186
Mo Te
  32   64
Direct
  0.9999079157694190  0.1826916177410133  0.5042747638680584
  0.2505390262355018  0.1825704774662906  0.5044234651934418
  0.5009260127418546  0.1823544560644842  0.5047372451572678
  0.7508912587316124  0.1821427016375773  0.5050720870667758
  0.9994261487854801  0.4321740424809270  0.5051193151280927
  0.2490727219572863  0.4323941006633854  0.5047969862920836
  0.4991481659971856  0.4326002299998567  0.5044682998031528
  0.7496178540890415  0.4326978225843498  0.5042841140542766
  0.0009533959027929  0.6823124737479085  0.5048013745140726
  0.2508375595763947  0.6821127830001922  0.5051226084070171
  0.5003405803936166  0.6820282807630411  0.5052880327205667
  0.7496905586365863  0.6820977513252189  0.5052217220761565
  0.9992085324170501  0.9326282249066272  0.5044203607200458
  0.2497308413409640  0.9326993033047120  0.5042743506960130
  0.5003799617665179  0.9326163729279009  0.5043618589153630
  0.7508579646106951  0.9324174966226936  0.5046427214231174
  0.1245999185143258  0.0223821110259174  0.4955873566001087
  0.3752549721435372  0.0223076423725723  0.4957183008890559
  0.6257960685459448  0.0223941297201391  0.4955997717112560
  0.8759748588040802  0.0226018776667498  0.4952861708200088
  0.1246999733944284  0.2730077322197425  0.4946316688838883
  0.3741834022833714  0.2729075154253704  0.4947718595058298
  0.6240446961302080  0.2726929287886445  0.4950969681889032
  0.8743475173855310  0.2724624618923767  0.4954577786582604
  0.1258606177322288  0.5224251399602715  0.4955539366225735
  0.3759586923706027  0.5226457184116927  0.4952186032031182
  0.6256198208363680  0.5228720849161999  0.4948631443199926
  0.8749995361885390  0.5230003432436661  0.4946507061860266
  0.1240684162324246  0.7726489017259122  0.4951650158436252
  0.3744420006744408  0.7724275289783418  0.4955137203067013
  0.6250747602619706  0.7723120874548981  0.4957068483719017
  0.8756762751033247  0.7723555617573090  0.4956557593724027
  0.0002065719255394  0.0823979022449982  0.5730474957110762
  0.2499622466282528  0.0822677508062720  0.5727365872806026
  0.4997365981365322  0.0832605206325166  0.5727035815297041
  0.7496331931316522  0.0849205566675421  0.5729636272238674
  0.0000666992216252  0.3371136216441223  0.5739633062096876
  0.2502849616526778  0.3360346381120854  0.5739681254343020
  0.5003737832403706  0.3343496743397388  0.5736856039439105
  0.7502923972284412  0.3328320840713949  0.5732454116198654
  0.9997063483100646  0.5835327878988651  0.5727309370573012
  0.2496324606777868  0.5852360296263098  0.5730348193606699
  0.4997286128677760  0.5866998312568298  0.5734797237177039
  0.7499506735714707  0.5872523466116099  0.5738614508120617
  0.0003715900327595  0.8340376994203498  0.5736118434576730
  0.2502610511334767  0.8326334633839421  0.5731639829018897
  0.5000320456858641  0.8321842962254540  0.5727978617553194
  0.7497896811250401  0.8328963537741914  0.5726815199273173
  0.1247924696233124  0.2075058238434166  0.6011122645941730
  0.3745064646585830  0.2075486484053279  0.6017620652818400
  0.6244488169963496  0.2076527376078874  0.6027540622167790
  0.8746459853867472  0.2077703172639802  0.6036329550794389
  0.1255174872626068  0.4578081127457335  0.6031708672868965
  0.3755512232693589  0.4577005470014531  0.6021695442767834
  0.6253338000472688  0.4575845284653175  0.6013233954475692
  0.8749650090967023  0.4575133065725981  0.6010207807011447
  0.1244669114136722  0.7076747621525415  0.6029360505298528
  0.3747037313973281  0.7077887616965615  0.6037461159627611
  0.6250783684751143  0.7078538202400865  0.6039877509290752
  0.8754188741507968  0.7078400776347497  0.6035500513790925
  0.1252735674435777  0.9575668900479946  0.6012197959352847
  0.3748945627599623  0.9575082516100131  0.6010400943719005
  0.6245657886293021  0.9575294188717979  0.6015339545816526
  0.8744381436698060  0.9576206766208163  0.6024747078084250
  0.9999978118664832  0.2472457885066524  0.3959306176737055
  0.2503245047512751  0.2472399721417012  0.3961274045043683
  0.5005037767412580  0.2473272934904635  0.3968980287099957
  0.7504533467411474  0.2474676743666117  0.3978887941906116
  0.9996578241926584  0.4976414095574790  0.3985778141792370
  0.2494974805162388  0.4975470598151955  0.3977696045249533
  0.4995692981646989  0.4974049026778781  0.3967815059307588
  0.7498403147395255  0.4972801845064452  0.3960670294810527
  0.0005124971461641  0.7473505909974310  0.3970749770677147
  0.2504195752808027  0.7474939633666422  0.3980565092017557
  0.5001355976655745  0.7476138982044168  0.3987264707480622
  0.7497909025045655  0.7476553485967564  0.3987773671011807
  0.9996064252803663  0.9973789651596983  0.3966188227750319
  0.2499022432060858  0.9972642869835936  0.3959960201642719
  0.5002444471024082  0.9972315866527659  0.3960073568607939
  0.7504759744443806  0.9972958727529789  0.3966476296211529
  0.1251107179861883  0.1229023716048759  0.4273448536391552
  0.3748449259657667  0.1223066320907881  0.4269766224008437
  0.6246651260956649  0.1207928422070012  0.4265132061469865
  0.8746538417541608  0.1190557914166135  0.4261673006642691
  0.1252412182343568  0.3684140301317912  0.4266032195902888
  0.3754081279575341  0.3699810462880713  0.4270646217800209
  0.6254025350335253  0.3716973943636766  0.4273904495698770
  0.8752270064663187  0.3727753160503299  0.4274311566340420
  0.1246492353137185  0.6204694089047728  0.4264356587370955
  0.3746716834305243  0.6187805371856794  0.4261311945335307
  0.6248596374329020  0.6177919992677634  0.4261195743138936
  0.8751268314118256  0.6179575078733762  0.4264061314512296
  0.1253818090197792  0.8719611370919145  0.4274215859962857
  0.3751821713508097  0.8728563899335512  0.4274040735116968
  0.6249137391325551  0.8725812681163003  0.4270951872729591
  0.8746997156436190  0.8712620452675269  0.4266366978826309
