generated by phonopy
   1.0
    13.9373960412018132    0.0000000000000000    0.0000000000000000
     0.0000000000000000   25.4057404610131385    0.0000000000000000
     0.0000000000000000    0.0000000000000000   20.1451492056119186
Mo Te
  32   64
Direct
  0.0013041123303553  0.1907965375046151  0.5059489866681013
  0.2539226830519130  0.1900852258532291  0.5059551607002482
  0.5062952254930881  0.1888887456549905  0.5058876920093570
  0.7582726640867014  0.1872822761611010  0.5057508199014091
  0.0073417806611714  0.4381309872741282  0.5058274910192831
  0.2590731951819750  0.4363559969971568  0.5056588878050650
  0.5102349558030057  0.4343301593375041  0.5054352577834285
  0.7607540648317878  0.4321807651258360  0.5051706524510873
  0.0105778636697673  0.6832625495118652  0.5053070866371677
  0.2607607804914849  0.6811018665654107  0.5050281068738033
  0.5102680062219286  0.6790204725746417  0.5047337345887818
  0.7591305036807517  0.6771491491788298  0.5044424662753969
  0.0097762876372753  0.9280508019708968  0.5045865503078286
  0.2583408387511250  0.9263297338015928  0.5043037547827498
  0.5063817526131708  0.9249878052402016  0.5040510804418755
  0.7540221258104751  0.9241093345935032  0.5038444037433143
  0.1267346159045692  0.0311266492324783  0.4963228296560168
  0.3740794942468205  0.0314013265696810  0.4962788270918414
  0.6214826313935233  0.0311266492324783  0.4961654515766020
  0.8691071977883442  0.0303198762081591  0.4959898269108871
  0.1202574655773308  0.2807873625759065  0.4960848153465494
  0.3680499684367329  0.2797315626685180  0.4958819842939893
  0.6162795873822791  0.2782313254935961  0.4956347153828400
  0.8650575619666271  0.2763809164703276  0.4953585454281805
  0.1155943556462400  0.5273430614947621  0.4954991886670287
  0.3646776719004331  0.5253600640220857  0.4952150036941880
  0.6144099980345852  0.5232073066190787  0.4949282897068267
  0.8648081529821231  0.5210200549506599  0.4946570619992310
  0.1145264356116965  0.7721093519345539  0.4947896391043132
  0.3652507072946442  0.7699565945315470  0.4945326492117250
  0.6165879829362559  0.7679735970588705  0.4943160051462737
  0.8684542365898134  0.7662849585406877  0.4941533194513525
  0.9998612845594909  0.0798393224563213  0.5721344548405585
  0.2498834314976613  0.0798365181433348  0.5718995572593076
  0.4999130875433161  0.0801402055393459  0.5717552983527958
  0.7499483892980394  0.0807313028483789  0.5717107424386663
  0.9999301645711143  0.3304017480906421  0.5717202316792505
  0.2499674743092611  0.3311236725371601  0.5717269802820357
  0.5000070124359517  0.3320712120482888  0.5718352112057357
  0.7500462946252749  0.3331848292317374  0.5720381239033688
  0.0000268420115438  0.5826114386065130  0.5719254974197455
  0.2500650634978063  0.5837823412112750  0.5721713144696794
  0.5000993814849884  0.5850118049499536  0.5724906946893717
  0.7501276396477425  0.5862225780941965  0.5728635702450207
  0.0001143893844807  0.8356243673314897  0.5726718475259003
  0.2501389233102072  0.8367970030969923  0.5730628392649225
  0.5001549128532027  0.8378387777029813  0.5734713763920189
  0.7501613533316753  0.8386842326195831  0.5738717890169998
  0.1240681026828693  0.2063924782942652  0.6033008080603869
  0.3730912432360730  0.2065373744952550  0.6032872988909975
  0.6222345695720912  0.2067541999117036  0.6032248005025882
  0.8715519096478577  0.2070293306052674  0.6031172398987558
  0.1218685153467520  0.4568854834604434  0.6031762927756539
  0.3712897455364111  0.4571834727907713  0.6030485731710390
  0.6209443562347998  0.4575127946044674  0.6028868643623609
  0.8708540495219912  0.4578527564008162  0.6027013271087925
  0.1208665780402470  0.7076827806309302  0.6027963725259128
  0.3709069682622494  0.7080200412946958  0.6026032270340056
  0.6212047902968731  0.7083360697660441  0.6024040750736935
  0.8717413308903702  0.7086110088138490  0.6022114300950729
  0.1214449967598426  0.9584798293857335  0.6023061639335503
  0.3720891193221965  0.9587275392724466  0.6021213675674856
  0.6229163947984279  0.9589095622668049  0.6019608417354526
  0.8738748424278587  0.9590144611946391  0.6018346728658508
  0.0014177640458090  0.2461015930744279  0.3980477908584497
  0.2523213270545598  0.2462252279200945  0.3979168079971599
  0.5030792403882965  0.2464253734714989  0.3977519489246569
  0.7536438815648506  0.2466894538475627  0.3975635723427752
  0.0033882522748130  0.4965503758537737  0.3976599868096825
  0.2538420968318004  0.4968404141098224  0.3974642260376734
  0.5040547361556696  0.4971683086608119  0.3972630264434455
  0.7540128093356697  0.4975134566861915  0.3970690301374646
  0.0040658067634275  0.7473400718565977  0.3971643461921113
  0.2538965796734914  0.7476857287672557  0.3969785814706264
  0.5034827239931200  0.7480161277440780  0.3968178927611461
  0.7528502437967659  0.7483105086042284  0.3966923767262588
  0.0031916247262319  0.9981690440506009  0.3967501868754433
  0.2524639649859107  0.9984382904244431  0.3966453740141793
  0.5015816931047632  0.9986449926478004  0.3965865738148596
  0.7506002454698508  0.9987761628597817  0.3965774809102597
  0.1249152662966801  0.1154001466972223  0.4255116623763968
  0.3748901050316000  0.1156594159850020  0.4258024509517969
  0.6248738773631842  0.1162106728045719  0.4261539861667858
  0.8748676029355203  0.1170192796625776  0.4265441797709500
  0.1248694562074412  0.3665856368501197  0.4263457436074438
  0.3748683467746272  0.3675047624357473  0.4267461652004659
  0.6248775380897841  0.3685999256489552  0.4271480363960948
  0.8748964526287778  0.3698023133573289  0.4275261061491303
  0.1248858406133039  0.6191923347109022  0.4273415844133865
  0.3749092067783826  0.6204202418605976  0.4276986915853255
  0.6249403063071239  0.6216409963432266  0.4279973976239638
  0.8749771851017609  0.6227778936650248  0.4282189337303294
  0.1249581612281143  0.8722245702951525  0.4281188074537390
  0.3749970779102125  0.8732922402127610  0.4282961974025406
  0.6250382066895929  0.8741722992443656  0.4283776427300731
  0.8750789632937861  0.8748094500443800  0.4283580259268726
