generated by phonopy
   1.0
    13.9373960412018132    0.0000000000000000    0.0000000000000000
     0.0000000000000000   25.4057404610131385    0.0000000000000000
     0.0000000000000000    0.0000000000000000   20.1451492056119186
Mo Te
  32   64
Direct
  0.9950812543523283  0.1835405488893721  0.5045816519245749
  0.2444614849137209  0.1834888098174753  0.5047212166611394
  0.4959599653432685  0.1830073372204352  0.5048844318683350
  0.7490043270483608  0.1822800372656695  0.5050089548844939
  0.9990043270483608  0.4322800372656695  0.5050089548844939
  0.2524317273317008  0.4315847138158823  0.5050472221498249
  0.5049330157781038  0.4311869567957175  0.5049846168696283
  0.7555527852167112  0.4312386958676142  0.5048450521330637
  0.0055527852167113  0.6812386958676142  0.5048450521330637
  0.2540543047871636  0.6817201684646542  0.5046818369258682
  0.5010099430820714  0.6824474684194201  0.5045573139097093
  0.7475825427987313  0.6831427918692072  0.5045190466443783
  0.9975825427987314  0.9331427918692072  0.5045190466443783
  0.2450812543523283  0.9335405488893721  0.5045816519245749
  0.4944614849137208  0.9334888098174753  0.5047212166611394
  0.7459599653432686  0.9330073372204352  0.5048844318683350
  0.1201135765223941  0.0233015063636540  0.4952484746488349
  0.3689584703024261  0.0237581743950597  0.4951178923076707
  0.6201135765223940  0.0237947389736571  0.4950090293327997
  0.8731376838668863  0.0233972336732063  0.4949634676805061
  0.1231376838668864  0.2733972336732063  0.4949634676805061
  0.3768756861159351  0.2727174920077712  0.4949986103533827
  0.6298997934604275  0.2720151521899787  0.4951010340448459
  0.8810548996803952  0.2715584841585729  0.4952316163860101
  0.1310548996803954  0.5215584841585730  0.4952316163860101
  0.3798997934604275  0.5215219195799755  0.4953404793608812
  0.6268756861159351  0.5219194248804263  0.4953860410131747
  0.8731376838668863  0.5225991665458614  0.4953508983402982
  0.1231376838668864  0.7725991665458612  0.4953508983402982
  0.3701135765223940  0.7733015063636538  0.4952484746488349
  0.6189584703024261  0.7737581743950597  0.4951178923076707
  0.8701135765223940  0.7737947389736571  0.4950090293327997
  0.0007606628010532  0.0839479941705274  0.5731269296799980
  0.2510533747542766  0.0838755372320425  0.5731662892399505
  0.5009448560228481  0.0841234757928431  0.5732727928632073
  0.7504765570737575  0.0845971057498251  0.5734057597856096
  0.0004765570737575  0.3345971057498252  0.5734057597856096
  0.2498273521886613  0.3351155165575115  0.5735144011621788
  0.4992452155680041  0.3354806929075015  0.5735572196796503
  0.7489525036147805  0.3355531498459864  0.5735178601196977
  0.9989525036147806  0.5855531498459863  0.5735178601196977
  0.2490610223462090  0.5853052112851858  0.5734113564964409
  0.4995293212952997  0.5848315813282037  0.5732783895740386
  0.7501785261803957  0.5843131705205172  0.5731697481974695
  0.0001785261803958  0.8343131705205173  0.5731697481974695
  0.2507606628010531  0.8339479941705272  0.5731269296799980
  0.5010533747542766  0.8338755372320423  0.5731662892399505
  0.7509448560228482  0.8341234757928431  0.5732727928632073
  0.1277642404436556  0.2074748568549910  0.6028833022951373
  0.3772865699295931  0.2076081788652569  0.6035578767238514
  0.6259370367473996  0.2077697477987059  0.6038312940889075
  0.8742311167037274  0.2078978498142865  0.6035991182499684
  0.1242311167037275  0.4578978498142864  0.6035991182499684
  0.3728204132731694  0.4579435542960742  0.6029500324861423
  0.6222437672181528  0.4578894036854645  0.6021319654975971
  0.8727214377322153  0.4577560816751985  0.6014573910688829
  0.1227214377322153  0.7077560816751985  0.6014573910688829
  0.3740709709144087  0.7075945127417496  0.6011839737038268
  0.6257768909580809  0.7074664107261690  0.6014161495427660
  0.8771875943886388  0.7074207062443811  0.6020652353065921
  0.1271875943886389  0.9574207062443811  0.6020652353065921
  0.3777642404436556  0.9574748568549910  0.6028833022951373
  0.6272865699295930  0.9576081788652568  0.6035578767238514
  0.8759370367473996  0.9577697477987058  0.6038312940889075
  0.0019758200552629  0.2471414699413093  0.3967819891604322
  0.2503431356255436  0.2471940625794530  0.3962016332649340
  0.4985806485157475  0.2473417019899725  0.3960704822871118
  0.7473615688970833  0.2475279949361281  0.3964386314428361
  0.9973615688970833  0.4975279949361281  0.3964386314428361
  0.2471515437488883  0.4976817838443530  0.3971654602675495
  0.4980307955392808  0.4977443265787979  0.3979733448542149
  0.7496634799690001  0.4976917339406542  0.3985537007497131
  0.9996634799690002  0.7476917339406541  0.3985537007497131
  0.2514259670787962  0.7475440945301348  0.3986848517275352
  0.5026450466974605  0.7473578015839791  0.3983167025718110
  0.7528550718456554  0.7472040126757542  0.3975898737470975
  0.0028550718456555  0.9972040126757542  0.3975898737470975
  0.2519758200552629  0.9971414699413094  0.3967819891604322
  0.5003431356255436  0.9971940625794531  0.3962016332649340
  0.7485806485157475  0.9973417019899724  0.3960704822871118
  0.1259691987869936  0.1196348761055274  0.4266278841881821
  0.3760379527769879  0.1194308564841012  0.4265240705472393
  0.6257225752882547  0.1195612673758377  0.4265139016513000
  0.8751435298022034  0.1199762962525966  0.4266012616729852
  0.1251435298022036  0.3699762962525966  0.4266012616729852
  0.3745219920134737  0.3705174161897689  0.4267527820532689
  0.6240953682320675  0.3709779377633448  0.4269105871568711
  0.8740266142420732  0.3711819573847711  0.4270144007978139
  0.1240266142420732  0.6211819573847710  0.4270144007978139
  0.3743419917308064  0.6210515464930346  0.4270245696937532
  0.6249210372168575  0.6206365176162756  0.4269372096720680
  0.8755425750055875  0.6200953976791034  0.4267856892917843
  0.1255425750055875  0.8700953976791034  0.4267856892917843
  0.3759691987869936  0.8696348761055274  0.4266278841881821
  0.6260379527769878  0.8694308564841011  0.4265240705472393
  0.8757225752882547  0.8695612673758377  0.4265139016513000
