generated by phonopy
   1.0
    13.9373960412018132    0.0000000000000000    0.0000000000000000
     0.0000000000000000   25.4057404610131385    0.0000000000000000
     0.0000000000000000    0.0000000000000000   20.1451492056119186
Mo Te
  32   64
Direct
  0.9693454250775831  0.1860522092339681  0.5066163958787385
  0.2352378967836121  0.1868443783709346  0.5052024256335867
  0.5148413378274231  0.1834769748838779  0.5033992078742819
  0.7806734999911040  0.1790761157111699  0.5028807533341987
  0.0076121460063282  0.4284031515156732  0.5048508141771980
  0.2289476333411302  0.4324295438449648  0.5064654971201483
  0.4698336334987607  0.4363948593333468  0.5065183646687698
  0.7387310955140068  0.4366179115824957  0.5049603374240917
  0.0259686898064269  0.6811230826870160  0.5029080445110139
  0.2777918611984422  0.6778424662385054  0.5033240858163677
  0.5038211818306766  0.6787591699776258  0.5050946296337226
  0.7263097458404634  0.6830221752790926  0.5065759979664152
  0.9763570008932446  0.9370911304943607  0.5058743238985685
  0.2538947316708609  0.9350922706343007  0.5040025132881857
  0.5278234260959351  0.9305604010775282  0.5028553894818679
  0.7759289666019579  0.9277026666578518  0.5034978807470841
  0.1411634252789223  0.0228845279575242  0.4928490036370876
  0.3639046791926461  0.0252627650952501  0.4933979904700058
  0.5969524403339186  0.0252231835907481  0.4955964296694758
  0.8560442587894141  0.0228025287916269  0.4974034080969739
  0.1422708929343707  0.2697913006509746  0.4964910819819102
  0.4033371652460175  0.2705363758216668  0.4941764452231659
  0.6381029379185342  0.2732513588647233  0.4927885851554971
  0.8607108512011538  0.2754158050187976  0.4936159166903646
  0.0981800774063042  0.5242040517335975  0.4966869698377894
  0.3685994910752205  0.5213653328162102  0.4975685071933850
  0.6449670002146751  0.5197269625212236  0.4962278126873631
  0.9028044223733054  0.5208099160303080  0.4939095152513521
  0.1243222323389025  0.7745700488871932  0.4929238261400500
  0.3506360683495210  0.7755793984919536  0.4946936428506836
  0.5995742788301478  0.7738769839773569  0.4969100976916041
  0.8721225722693133  0.7710432357464325  0.4975155527682231
  0.9892969359915257  0.0836867001779385  0.5747734669379463
  0.2265135188670141  0.0871576551719801  0.5775401599129791
  0.4855364207682349  0.0883603705829442  0.5764095755327623
  0.7579892631070284  0.0861783098767600  0.5724312877479195
  0.0233082106751214  0.3316594973311861  0.5690349288091823
  0.2593795037638444  0.3313270922139959  0.5711233332697586
  0.4867460967868326  0.3341392297042967  0.5752714983531808
  0.7264196318582145  0.3374852720584232  0.5776284898959922
  0.9963054924793012  0.5876299856869319  0.5745726449642624
  0.2676973238943175  0.5843644683533484  0.5705152470503364
  0.5226626367860990  0.5814237563923406  0.5690821244180528
  0.7565919007568253  0.5815378491958778  0.5716037113182422
  0.9789828154293576  0.8359672238003978  0.5768886862891374
  0.2296906434445467  0.8383178296205946  0.5773078916452504
  0.4992553182896595  0.8373231520733201  0.5740454450586262
  0.7695140443085964  0.8339065964887359  0.5701300271059112
  0.0920399520696706  0.1968367024183882  0.6029806887632171
  0.3775624543335148  0.1946489161531483  0.5968149927936515
  0.6607098282579902  0.2045604674248079  0.5959340397554496
  0.9107098282579902  0.2173700031923745  0.6011556592390417
  0.1124128564650238  0.4691683960831505  0.6090591966364460
  0.3355382995496590  0.4573595651280208  0.6082354525834247
  0.5953015875235675  0.4458501863646636  0.6020943086149020
  0.8826390070459653  0.4453249502498552  0.5963368736876070
  0.1657498126216106  0.7114286554458649  0.5979854905767212
  0.3968366999640555  0.7209147006087768  0.6046602883690845
  0.6076552822297513  0.7181163366022685  0.6093366771096399
  0.8345794879126957  0.7056314146057724  0.6076733480991318
  0.1124128564650237  0.9438803845590539  0.5987509094298279
  0.4009763598358135  0.9498265171846874  0.5954494015791358
  0.6654285197491127  0.9630653800169612  0.5987003783613880
  0.8923527254320571  0.9713067222724955  0.6054858071516507
  0.0042766783283333  0.2633032842115638  0.4047266046353233
  0.2829102756308034  0.2612647034033761  0.3983397736292296
  0.5309948074796467  0.2463946994100848  0.3910597743946117
  0.7503084918565394  0.2324977870561722  0.3896449680860357
  0.9641953696239185  0.4865454732455061  0.3984585132872944
  0.2247867574947764  0.5026946960203929  0.4047775633474808
  0.5087878393125995  0.5139684311982019  0.4042269462055993
  0.7846338328342674  0.5099007471988500  0.3973178253086230
  0.0178604601243976  0.7383174913573870  0.3893607296416878
  0.2326810251297041  0.7303753035988009  0.3918421729339743
  0.4635826690631800  0.7382777560720408  0.3994624722770633
  0.7282952822168869  0.7546886353930470  0.4051473501323527
  0.0247749188901772  0.0139801349016220  0.4012515605049946
  0.2859256175510576  0.0027394541065748  0.3933988941490196
  0.5137279689115940  0.9865817347058228  0.3892399072924237
  0.7287890803976064  0.9805069374995201  0.3926355804529394
  0.1155376999299638  0.1257212962721594  0.4320521978756189
  0.3597703956931091  0.1234591666858725  0.4344815752524466
  0.6181714102210931  0.1182701839026147  0.4297512298672306
  0.8829416918361510  0.1149715214609932  0.4222525608765951
  0.1394268221391361  0.3683500290418941  0.4196380590794976
  0.3782651519330549  0.3735286415280262  0.4256819044084630
  0.6141022599318566  0.3757159040968858  0.4327351698129484
  0.8600862160806666  0.3728812793948528  0.4342499816756260
  0.1256305529636278  0.6161006256291427  0.4258935829837039
  0.3882961487590577  0.6151621966844355  0.4197289037708283
  0.6386482828668082  0.6189993768578177  0.4201000914043985
  0.8763600528520957  0.6240499337106454  0.4266625551773377
  0.1102679940228622  0.8748621006228984  0.4344415953895883
  0.3636018955395999  0.8702634691206221  0.4322077313439199
  0.6275471566936102  0.8657046987836552  0.4249250593656846
  0.8891577443554692  0.8654179076885268  0.4193544218413906
