generated by phonopy
   1.0
    13.9373960412018132    0.0000000000000000    0.0000000000000000
     0.0000000000000000   25.4057404610131385    0.0000000000000000
     0.0000000000000000    0.0000000000000000   20.1451492056119186
Mo Te
  32   64
Direct
  0.0060877295690791  0.1875367887050995  0.5052640926141123
  0.2574445507625327  0.1874831998536430  0.5050263139557444
  0.5034081149357592  0.1837172336582325  0.5046121931490817
  0.7469054516841727  0.1789697881146146  0.5043220307338079
  0.0016004737037232  0.4323008225256904  0.5045039067983450
  0.2452670785303663  0.4279413134825097  0.5042968251579411
  0.4923709449305524  0.4267887452768088  0.5044423916449033
  0.7450122100358321  0.4296789050717188  0.5048350484270938
  0.9925697193678995  0.6772443058314466  0.5045399548384588
  0.2466061551946729  0.6810102720268570  0.5049540756451214
  0.5031088184462594  0.6857577175704750  0.5052442380603953
  0.7573622897271231  0.6880440227341197  0.5052000302225705
  0.0047471916000659  0.9367861922025797  0.5052694436362621
  0.2576433251998798  0.9379387604082807  0.5051238771492998
  0.5050020600946000  0.9350486006133707  0.5047312203671094
  0.7487387150120034  0.9302115180327043  0.5043762091486601
  0.1267646774631870  0.0237917175942750  0.4957101964941599
  0.3804920328677918  0.0272728960716641  0.4959931818065040
  0.6302416771766791  0.0274078121140250  0.4956826827928381
  0.8761951563251037  0.0240986310806416  0.4950038584402863
  0.1293837830307541  0.2767463374847696  0.4955070689027031
  0.3747126879651670  0.2728167635231896  0.4948101299747573
  0.6202547854371824  0.2687723006477353  0.4943775991469520
  0.8692427324721719  0.2675457992843900  0.4945231270229999
  0.1195213371150297  0.5180437624819686  0.4943563268871768
  0.3697716928061422  0.5179088464396077  0.4946668259008427
  0.6238182136577177  0.5212180274729911  0.4953456502533945
  0.8787265568982301  0.5255716462695519  0.4959005490940130
  0.1253006820176545  0.7724998950304429  0.4955393787189236
  0.3797585845456392  0.7765443579058973  0.4959719095467289
  0.6307706375106495  0.7777708592692425  0.4958263816706809
  0.8776029486602528  0.7752899991786995  0.4952083249241353
  0.9989130222619138  0.0874306868053974  0.5698888592473911
  0.2542245622743864  0.0904950012397128  0.5722460678377301
  0.5064747837734481  0.0893674600625327  0.5753980480040984
  0.7540319340924758  0.0848657020366892  0.5770591349602696
  0.0062403726596849  0.3383128210777547  0.5761101855732338
  0.2526454132827760  0.3333902523965877  0.5770434996067884
  0.4971342584743972  0.3294278510826811  0.5752927178758160
  0.7437033332791471  0.3292989604548565  0.5721274232899904
  0.9957813160946707  0.5789336858383161  0.5744380815219181
  0.2435310945956090  0.5800612270154962  0.5712861013555499
  0.4959739442765813  0.5845629850413396  0.5696250143993786
  0.7513384277556463  0.5891745009875922  0.5706593612159024
  0.9973604650862812  0.8360384346814410  0.5696406497528599
  0.2528716198946599  0.8400008359953477  0.5713914314838323
  0.5063025450899101  0.8401297266231723  0.5745567260696578
  0.7551652983345025  0.8363316412657240  0.5768412137459391
  0.1338013644697560  0.2145906453269895  0.6031169635283531
  0.3839571096178381  0.2115581652401252  0.6045181786236794
  0.6276204920147513  0.2057149705633009  0.6044614431476844
  0.8693865227185267  0.2012982657226060  0.6029878989454199
  0.1251868980570533  0.4541210363573256  0.6041531050631020
  0.3675628039785174  0.4508203655101969  0.6024410084437923
  0.6153347110079036  0.4524955172430182  0.6007772254060341
  0.8701183252647201  0.4579317518920857  0.6003682515813358
  0.1160508980439702  0.7038060953003302  0.6004970891690549
  0.3723875156470569  0.7096492899771545  0.6005538246450500
  0.6306214849432816  0.7140659948178494  0.6020273688473144
  0.8847819264607306  0.7138534273832214  0.6038491782202763
  0.1324452036832909  0.9645438950302586  0.6025742593489420
  0.3846732966539047  0.9628687432974372  0.6042380423867003
  0.6298896823970881  0.9574325086483697  0.6046470162113985
  0.8715632084564768  0.9521772876227537  0.6035046126277243
  0.0054500302310944  0.2559970434540336  0.3976359358627332
  0.2502861643145773  0.2528955156184899  0.3953938866096384
  0.4949171844230238  0.2458400112884485  0.3945903797201584
  0.7432364171728320  0.2399468436845038  0.3958080798386875
  0.9939392905718969  0.4938007203794160  0.3947447897191238
  0.2436984216767912  0.4891574972673151  0.3964340949438179
  0.4980295536909909  0.4905224494257729  0.3988076333568529
  0.7537919574833356  0.4969057790391944  0.4001442287822760
  0.9997204512799664  0.7419902809016172  0.3993614474050087
  0.2550894311715199  0.7490457852316588  0.4001649542944887
  0.5067701984217118  0.7549389528356034  0.3989472541759596
  0.7535439412630708  0.7553963413182903  0.3965913647507391
  0.0063081939177526  0.0057282992527921  0.3983212390708291
  0.2519770619035529  0.0043633470943343  0.3959477006577941
  0.4962146581112081  0.9979800174809128  0.3946111052323711
  0.7431996012936891  0.9912071947792346  0.3952806876679002
  0.1322289387969951  0.1248615151058054  0.4292679977523722
  0.3785540798841017  0.1256709796094108  0.4256045788036882
  0.6223253832143891  0.1225903133986252  0.4227857131366347
  0.8680596007629977  0.1178534678006939  0.4228555068852009
  0.1207168330100648  0.3712569751274430  0.4224672193212639
  0.3677178170792621  0.3666887272212428  0.4234589928743247
  0.6200229012592671  0.3647438470685962  0.4268511956808559
  0.8759605490995207  0.3668326684418302  0.4301839650217467
  0.1215104871349595  0.6149418342594614  0.4279338925413650
  0.3777391838046718  0.6180225004702470  0.4307527582084186
  0.6320049662560634  0.6227593460681784  0.4306829644598523
  0.8812144937254829  0.6257174378971065  0.4277751223734576
  0.1323467499397991  0.8739240866476294  0.4300794784707285
  0.3800416657597939  0.8758689668002761  0.4266872756641973
  0.6241040179195403  0.8737801454270422  0.4233545063233066
  0.8688395037474312  0.8691723355671972  0.4224979348694723
