generated by phonopy
   1.0
    13.9373960412018132    0.0000000000000000    0.0000000000000000
     0.0000000000000000   25.4057404610131385    0.0000000000000000
     0.0000000000000000    0.0000000000000000   20.1451492056119186
Mo Te
  32   64
Direct
  0.0000084874630076  0.1814303111890768  0.5047050646679712
  0.2495562950387172  0.1812061165629565  0.5047287706712228
  0.4993484861968175  0.1816094334364434  0.5047819452249612
  0.7494977063686167  0.1824216387579270  0.5048357643846145
  0.9996879750774842  0.4328459113869144  0.5048533396459716
  0.2501699694877841  0.4334412263655187  0.5048578262441001
  0.5005636974239808  0.4334524830884256  0.5048218251746038
  0.7506557336401343  0.4328735797055147  0.5047648512760424
  0.0005651467259291  0.6824521569894701  0.5047381614691142
  0.2501725893072400  0.6816329946306282  0.5047065921940410
  0.4996903453079216  0.6812099490741839  0.5047165135956792
  0.7493798212340799  0.6814123375557899  0.5047625476518209
  0.9993483163612977  0.9317266560091865  0.5047917493026645
  0.2495543233275937  0.9325670159247695  0.5048425914377975
  0.5000057826674246  0.9332971944960127  0.5048612041262320
  0.7504579750917149  0.9335213891221330  0.5048374981229803
  0.1248340330613393  0.0233454080024907  0.4951469738913588
  0.3741999924987865  0.0225581704372320  0.4950951767329431
  0.6240032298832833  0.0218252252475101  0.4950865156343697
  0.8743504028983337  0.0215438747149155  0.4951256854545073
  0.1246788400160937  0.2716332682077582  0.4951573471814948
  0.3754212539292709  0.2722111807791819  0.4952232148311959
  0.6259389454659348  0.2730314758927264  0.4952628138577158
  0.8759512933305766  0.2736495021273044  0.4952546791040333
  0.1257539224052606  0.5237677862756790  0.4952330428328681
  0.3750867984248638  0.5235421665472978  0.4951693994684199
  0.6243762479368055  0.5228374515618072  0.4951086587840683
  0.8740074338892153  0.5220356410587955  0.4950837460419156
  0.1240249116920573  0.7717389411872247  0.4950900043328346
  0.3744517081797583  0.7715564527660613  0.4951356788939463
  0.6251793369214822  0.7719712505511419  0.4952025348023221
  0.8758133774840350  0.7727584881164007  0.4952543319607378
  0.0007371527549203  0.0846971388186156  0.5743520310787532
  0.2499898951596039  0.0839568366925956  0.5742246741059086
  0.4992497082442461  0.0836271508072208  0.5736188928652866
  0.7489178197601152  0.0838867915985569  0.5728630587991433
  0.9989737001426805  0.3342051469593281  0.5725600538466882
  0.2494909712498319  0.3350016469659418  0.5723106719444441
  0.5002857611010975  0.3356424104882623  0.5726203750403028
  0.7509272437278770  0.3357801034923839  0.5733212846239394
  0.0010725837096037  0.5856239729878826  0.5737026984409161
  0.2509132650517391  0.5849683185610013  0.5742671254673977
  0.5002604926553068  0.5841749937365004  0.5743301169245573
  0.7494681101174796  0.5836740303465502  0.5738575274902056
  0.9991575049411854  0.8336293113938851  0.5734920614913052
  0.2489194578423187  0.8339819200954242  0.5727522210461431
  0.4992687256141369  0.8347315482594133  0.5723321182808950
  0.7500159832094532  0.8354718503854331  0.5724594752537396
  0.1247994117882620  0.2057117368130879  0.6025408790062398
  0.3739244027866092  0.2063121147039410  0.6023249968513391
  0.6236346052907016  0.2076551269935636  0.6022081154344338
  0.8740871077267103  0.2090127767534630  0.6022535918172293
  0.1245284731165138  0.4594554859588711  0.6023329139321562
  0.3755401960475460  0.4595665196611478  0.6025505878903853
  0.6262612691536934  0.4586560960772372  0.6027449780887014
  0.8763008255675787  0.4572177219142898  0.6028107128425738
  0.1260420173567190  0.7065445168552634  0.6027806053300450
  0.3751438672327376  0.7057495398143804  0.6026149891976101
  0.6241699023692114  0.7060021480612584  0.6023911797558764
  0.8736480728337499  0.7071654120761455  0.6022304957652220
  0.1236602981719997  0.9579025710512655  0.6022039404789923
  0.3742226851476217  0.9591848247318037  0.6022765275671145
  0.6252085958735464  0.9596525237273675  0.6024743887864946
  0.8760836048751991  0.9590521458365143  0.6026902709413953
  0.9991942546595991  0.2454727313253833  0.3973724215197518
  0.2504783614038641  0.2456604282410194  0.3977093292844863
  0.5015049592860429  0.2468143357483336  0.3978664552847968
  0.7517175678399491  0.2483089635762536  0.3977586273696196
  0.0014616648195100  0.4989256722166895  0.3976183637750015
  0.2504001004963342  0.4994769692760875  0.3972608685858827
  0.4991234496334463  0.4989256722166895  0.3969666854697202
  0.7483237371021908  0.4975706186359098  0.3968952801340399
  0.9982564249339926  0.7468143357483337  0.3969610641241329
  0.2488328300051178  0.7456604282410194  0.3972507072040150
  0.5000437074814036  0.7454727313253834  0.3976091704634030
  0.7512326857940055  0.7463529885067725  0.3978421443238753
  0.0016065610197256  0.9970617513591085  0.3978671140185765
  0.2516579101144248  0.9985328080133348  0.3977169768762369
  0.5008123609349446  0.9994130651947239  0.3973829124948952
  0.7495282541906796  0.9992253682790878  0.3970460047301607
  0.1243589106408639  0.1200643989363373  0.4256414141319576
  0.3743814773318143  0.1195008615352778  0.4262921640575026
  0.6247568218060228  0.1193739802846348  0.4272015167323240
  0.8752814838074205  0.1197525327834408  0.4278765459491921
  0.1255098070934708  0.3700757271598156  0.4280004015261683
  0.3757426053620543  0.3707693688459309  0.4277362619754309
  0.6255903646173137  0.3712120561273982  0.4269479334923019
  0.8751356088952678  0.3711638247211791  0.4260627395784320
  0.1248687421652268  0.6209527073874371  0.4257392994895193
  0.3744381701185514  0.6203005591022970  0.4255514840695245
  0.6243296448075248  0.6196515807090994  0.4260237664263725
  0.8746019937601611  0.6193575592172089  0.4269001398892210
  0.1248413846705440  0.8694043719004966  0.4273431497332613
  0.3753632127234439  0.8698536940116760  0.4279364570983122
  0.6257056563781972  0.8705484149325350  0.4278970572130955
  0.8756830896872467  0.8711119523335944  0.4272463072875506
