generated by phonopy
   1.0
    13.9373960412018132    0.0000000000000000    0.0000000000000000
     0.0000000000000000   25.4057404610131385    0.0000000000000000
     0.0000000000000000    0.0000000000000000   20.1451492056119186
Mo Te
  32   64
Direct
  0.0015549885832115  0.1850742744592302  0.4800737402642697
  0.2513627078072599  0.1874425476735916  0.4705065455554208
  0.5008350764454974  0.1885543948998964  0.4694189209877697
  0.7501026234476229  0.1881347599887334  0.4770799303485938
  0.9988155805644426  0.4266981093668356  0.5405247222351578
  0.2494389179239837  0.4261481437702658  0.5382425693647497
  0.5002028246128348  0.4271358368170953  0.5276829993043318
  0.7509183203220346  0.4294168464432043  0.5114583086100694
  0.0002954985918908  0.6883841378796196  0.4744137950358206
  0.2495271999873557  0.6868633762157146  0.4874978477620461
  0.4988776309091085  0.6842294678446504  0.5048580494688384
  0.7485074860688078  0.6811340065081813  0.5221997181877550
  0.0007543137339168  0.9287518235229031  0.5158415028634834
  0.2513149448727766  0.9316453231217621  0.4979607839444247
  0.5015520413376996  0.9347165526352585  0.4817678233801579
  0.7514069486308935  0.9372057309136492  0.4712685432749085
  0.1240756230872780  0.0230381225446601  0.5004483181578305
  0.3745432408720998  0.0259582830067095  0.4796854203229260
  0.6251255085403850  0.0280620790036546  0.4627543767866765
  0.8756783808501470  0.0288290595127503  0.4538437015197233
  0.1252577402557535  0.2684397760618675  0.5177203850195717
  0.3746692059897612  0.2667919909499217  0.5320465325958001
  0.6241641595200280  0.2665954595652549  0.5372510948434279
  0.8738675425957008  0.2678988011467572  0.5320465325958003
  0.1255508640838543  0.5287794382439174  0.4551577765357072
  0.3759901931905810  0.5283985582818741  0.4538437015197233
  0.6261862155085889  0.5265976223539427  0.4627543767866765
  0.8760904377352779  0.5238221579480312  0.4796854203229260
  0.1239170353327292  0.7674440914525150  0.5342963463527951
  0.3738285518093816  0.7696788226737854  0.5219952231801995
  0.6240315226953054  0.7726506440221760  0.5030590743420476
  0.8744757357050319  0.7756243665998889  0.4821724500722880
  0.9989523242884927  0.0825070660203358  0.5727726844103197
  0.2488525335290315  0.0821575333791102  0.5762350972794597
  0.4990373377592198  0.0824405214122368  0.5789818150084858
  0.7494610188815097  0.0832860226610652  0.5803333363276264
  0.0011164347139900  0.3372388070468815  0.5692927540207915
  0.2508330999295175  0.3367284232965371  0.5670052109095821
  0.5003443944677551  0.3357197831224639  0.5662853232340747
  0.7497712175307951  0.3344624106282063  0.5673111815874273
  0.9993376279781213  0.5830313559302615  0.5801515753333890
  0.2498740451447325  0.5841674034485629  0.5802143269854637
  0.5004423489747537  0.5854387566380744  0.5785769752310167
  0.7509019486932264  0.5865308997051011  0.5756445790189354
  0.9999147058452752  0.8347834085110906  0.5668977744783325
  0.2493714075686951  0.8335431129468873  0.5690886156316827
  0.4989843417765545  0.8325925641834329  0.5723317057269570
  0.7488492633745958  0.8321669152853908  0.5758247476025530
  0.1233855307426526  0.2115502019363384  0.6073970888133005
  0.3747175522898903  0.2132152622716227  0.6055656820515313
  0.6261204381213572  0.2135114996728910  0.6029777550319660
  0.8772471330250260  0.2123656289648269  0.6002735263243133
  0.1247535012665376  0.4518655753105739  0.6003632169017443
  0.3734153959859093  0.4521212503056649  0.6030750495864959
  0.6224702910621925  0.4537526127101444  0.6056465112102329
  0.8721519928268301  0.4563560852602893  0.6074414565221961
  0.1270085080055433  0.7127775238516100  0.6009227823642146
  0.3777385421362102  0.7107184615771972  0.5985751831343972
  0.6277920880238160  0.7079082515030928  0.5972004196852040
  0.8771558991311448  0.7050421020569771  0.5971385901270051
  0.1221655123717532  0.9556465487666620  0.6070943490777042
  0.3723786157216672  0.9585639432718411  0.6080002289835618
  0.6232412050143910  0.9612631890215202  0.6075473142463995
  0.8745398871831733  0.9630765286793886  0.6058476499212109
  0.9969414408529286  0.2443725572994363  0.3989300493338392
  0.2478447075697018  0.2422625772757489  0.3955505668072343
  0.4992819831436873  0.2414341394540357  0.3926230844599125
  0.7508977048000091  0.2420921882833866  0.3908718223131802
  0.0016684884888533  0.5031029201574513  0.4003989723310611
  0.2501181139591303  0.5033783623971694  0.4029579473126068
  0.4985393379187839  0.5021854501076866  0.4041364354996599
  0.7473227284676095  0.4998192938520081  0.4036428946594489
  0.0004990871926592  0.7417909955679792  0.3911693731559902
  0.2519849886887137  0.7434765118050214  0.3906054074601693
  0.5029806488076560  0.7461432590597676  0.3917168082983327
  0.7532397545381664  0.7491315196893709  0.3942286299515315
  0.9975741179264079  0.0004926081049028  0.4039235069385776
  0.2468346788957902  0.9976197407020756  0.4022336180312344
  0.4968791163222389  0.9947031248417225  0.3993424317165073
  0.7476964369801385  0.9924642923214514  0.3959651888621570
  0.1254187938687769  0.1212421350829884  0.4306832637274819
  0.3749588786167369  0.1197948001671233  0.4327359161533435
  0.6245171227544782  0.1184740299303801  0.4333124915436256
  0.8742028107804267  0.1176065652837228  0.4322703528498703
  0.1252797437060106  0.3713472882485405  0.4203969136324319
  0.3756853581728952  0.3725318918028978  0.4204324208328967
  0.6259294106931982  0.3731659401334707  0.4220355713642837
  0.8759515259339598  0.3730925781542169  0.4248097672033597
  0.1242644304333888  0.6177666531125333  0.4326751246558214
  0.3740992830490366  0.6173884825762554  0.4305677546936158
  0.6241649475136426  0.6177321675424660  0.4275206818741401
  0.8744451793159463  0.6187126849421859  0.4242877113037724
  0.1259681052403973  0.8731793535266649  0.4240404263686369
  0.3758169872668188  0.8725775207847671  0.4272524320947867
  0.6254717440673984  0.8714138448185778  0.4303449014816160
  0.8750177841971929  0.8699762035153190  0.4325527989184855
