generated by phonopy
   1.0
    13.9373960412018132    0.0000000000000000    0.0000000000000000
     0.0000000000000000   25.4057404610131385    0.0000000000000000
     0.0000000000000000    0.0000000000000000   20.1451492056119186
Mo Te
  32   64
Direct
  0.0032413151891378  0.1832803293308626  0.5053699368321793
  0.2494896104808579  0.1818550580919515  0.5038739392851842
  0.4973813415780634  0.1820451828988617  0.5052651549185068
  0.7536114650242021  0.1832469490225792  0.5051256804014504
  0.0024677916780757  0.4326276795018995  0.5042534891221043
  0.2463705502685762  0.4314978655622695  0.5044943024995363
  0.5018215402767084  0.4331177377301770  0.5056523219316600
  0.7515107586118603  0.4323432777280169  0.5040501750660872
  0.9979968357721014  0.6815784481364965  0.5039328971146709
  0.2487158959240906  0.6824417727730798  0.5055486703649887
  0.5035353770070035  0.6830573396194863  0.5047334301754852
  0.7471506770465368  0.6814703727546670  0.5040760292461000
  0.9965465962436120  0.9317092315057156  0.5048898888444368
  0.2530014836292374  0.9332684456582627  0.5054527284016159
  0.4999476060345105  0.9319547439895057  0.5038892249880125
  0.7470827670738588  0.9319398787705734  0.5051643939276833
  0.1314693180671831  0.0237574051611040  0.4960518489064584
  0.3701339924868499  0.0225228694581212  0.4948866724244418
  0.6242722455019122  0.0217184959599431  0.4946363203980984
  0.8807427628972284  0.0238986294220539  0.4960958033380474
  0.1253279841243282  0.2735429193771942  0.4956652034684907
  0.3694866033909186  0.2714041154392643  0.4942557514117804
  0.6311746309709338  0.2732481559703068  0.4957646579692735
  0.8732759112245021  0.2732191602506840  0.4954002839828202
  0.1187038596058612  0.5219992306170289  0.4945415992606690
  0.3771338005552372  0.5221699685000287  0.4950057427967905
  0.6288089360602822  0.5238915304613915  0.4960065944261845
  0.8684097552199922  0.5216969751147982  0.4943658792350817
  0.1215504879905892  0.7714459168337723  0.4943693866913145
  0.3815847508510121  0.7736696423414181  0.4960096943552774
  0.6207299017904677  0.7726818719102130  0.4949985911553499
  0.8734562793173423  0.7716193401867931  0.4945469065903131
  0.9995497100375629  0.0856245747961920  0.5696444263181624
  0.2534018529322180  0.0844930316280943  0.5796328898155225
  0.4964605055820824  0.0840642800366280  0.5696444263181624
  0.7507684058943255  0.0856998509294474  0.5713981058944223
  0.0036405779274145  0.3353162916448704  0.5773519911623924
  0.2489989633858177  0.3337252860460478  0.5749065367860959
  0.4975455447779243  0.3352751022492287  0.5674930226895819
  0.7538957553657755  0.3350441896320640  0.5786535855730650
  0.0022654562685240  0.5841035090948856  0.5790341743966667
  0.2461046681806439  0.5844437182572837  0.5678293913534906
  0.5023231145115787  0.5856433170821407  0.5741305228825365
  0.7511736805084672  0.5838928949239061  0.5779278815546560
  0.9974906306782974  0.8338085787351849  0.5721632934698812
  0.2490679938310512  0.8355687974904258  0.5690357153847494
  0.5036143418717065  0.8346156374800384  0.5795832848592021
  0.7466924260587807  0.8339759255191588  0.5703114513751067
  0.1281710136332833  0.2073853591580637  0.6030770945773775
  0.3722926544498807  0.2060973348825774  0.6025173635733216
  0.6250243763884809  0.2098419400959158  0.6019267352941100
  0.8776914038341375  0.2067279169312864  0.6031807914823808
  0.1247741639598571  0.4555021115430924  0.6030616407965141
  0.3724460871220576  0.4587585595679829  0.6018214285837619
  0.6282408551380563  0.4585967304646509  0.6027603097218085
  0.8737567736153354  0.4555305239604209  0.6028968009613620
  0.1217226763253317  0.7068946041598546  0.6022137250423292
  0.3764430971765273  0.7098023198190774  0.6021565995758852
  0.6265935756460175  0.7059772240828438  0.6032142083436609
  0.8716962567445141  0.7075661781483509  0.6020280401373173
  0.1236017777677278  0.9594704494383068  0.6018074426767251
  0.3782776964632362  0.9576602403718156  0.6030192418378693
  0.6225577733944339  0.9559195442210701  0.6026063939100680
  0.8746060275471044  0.9597760643398223  0.6018799265957261
  0.0029745125080754  0.2477099158939839  0.3967806918288219
  0.2455154197338197  0.2477857600636065  0.3955631897238134
  0.5023079319217415  0.2467728224027177  0.4001076881615591
  0.7517819477158425  0.2478877578702193  0.3959828119450214
  0.9974600482057874  0.4981076936799928  0.3946367487829598
  0.2484881887406690  0.4969672041341073  0.3989180224665063
  0.5043276966626333  0.4973373148237811  0.3983077887872956
  0.7464348028534002  0.4980427131594545  0.3947438878179336
  0.9957671372047939  0.7475065364220681  0.3966113648979349
  0.2537376062862683  0.7468634358194876  0.3999582859415095
  0.4998495472307695  0.7480604590516834  0.3951102696141097
  0.7464497656950239  0.7472963744491916  0.3974625335707726
  0.0004395818154476  0.9968097551747759  0.3997374420614512
  0.2533757913936116  0.9976303794880786  0.3971208592112571
  0.4956024415360426  0.9978556439435018  0.3953197876235990
  0.7518043527722562  0.9967702053806722  0.4000536571088899
  0.1274016133158485  0.1207305140455576  0.4263348423506450
  0.3713390454285955  0.1208544004567075  0.4227547951147690
  0.6270046154575697  0.1192380948018289  0.4319228869065176
  0.8764069063271001  0.1210142896449481  0.4247251958486866
  0.1228671766760027  0.3713664062292800  0.4215492892906316
  0.3738761627561215  0.3695492993818555  0.4291159851285771
  0.6285564918005045  0.3701364409472047  0.4292304126122378
  0.8720454489440568  0.3712633214883888  0.4215291991995869
  0.1215860733549528  0.6204095220333739  0.4246073332409682
  0.3781504905110372  0.6193818434285189  0.4319509019451430
  0.6248128214859467  0.6212901814226705  0.4228397240693946
  0.8721720695898254  0.6200744741688219  0.4262069873379765
  0.1254833151140818  0.8692976950042318  0.4309138955108902
  0.3777393373576623  0.8706036552990901  0.4269997422178020
  0.6213989192467925  0.8709656824546170  0.4223535991384236
  0.8765965055210867  0.8692341337138626  0.4317296211957105
