generated by phonopy
   1.0
    13.9373960412018132    0.0000000000000000    0.0000000000000000
     0.0000000000000000   25.4057404610131385    0.0000000000000000
     0.0000000000000000    0.0000000000000000   20.1451492056119186
Mo Te
  32   64
Direct
  0.0013930207058860  0.1817584106957267  0.5050696037856417
  0.2441541321323745  0.1827422266624243  0.5058022428107951
  0.4978862232346267  0.1830166241249198  0.5046246457020666
  0.7555937916866204  0.1820672672766775  0.5037441228084065
  0.9945870086743211  0.4326174069325681  0.5058259624395132
  0.2468498820784753  0.4330684223993470  0.5048206608399877
  0.5050307703454652  0.4321985918876577  0.5037450189643797
  0.7537952613903021  0.4316383422014160  0.5046152403395116
  0.9959253881834044  0.6830952574034165  0.5050153465849609
  0.2542897842200107  0.6823357674078044  0.5037826908771020
  0.5046267014778104  0.6816287338416998  0.5044252854724813
  0.7463046158605154  0.6822994338274310  0.5057386388773212
  0.0033970831131645  0.9324739343259290  0.5038558040002841
  0.2552944911221020  0.9316451638965270  0.5042480075820086
  0.4972811786847643  0.9321633302126636  0.5056432630124515
  0.7443774505736446  0.9330571725064511  0.5054262770574343
  0.1198920390309625  0.0221646979668920  0.4964296100742850
  0.3770663378108711  0.0222832818109403  0.4953043584943736
  0.6303799842930270  0.0231048617362797  0.4939361744429094
  0.8736218166814202  0.0230894527529252  0.4948896080480145
  0.1260452903969228  0.2722016662127282  0.4955361363624353
  0.3806081659106185  0.2730212723961014  0.4939970481696016
  0.6246715193799999  0.2731605711149434  0.4946654747658021
  0.8693631136264652  0.2723584582094219  0.4962885046651211
  0.1306379122740703  0.5229248256149799  0.4940996427247593
  0.3757330954874581  0.5232138973094569  0.4944593829666455
  0.6194666810936279  0.5224616017494595  0.4961600288876839
  0.8735845550494910  0.5220780559968787  0.4960138575276325
  0.1267689381409473  0.7732475422294398  0.4942786335552755
  0.3697665059607977  0.7725717144602308  0.4959966492684360
  0.6225863647143567  0.7720582391455281  0.4961740895566563
  0.8799429176867766  0.7726695841511858  0.4944783569792614
  0.0044782676484617  0.0857375769902656  0.5722551018328863
  0.2549466880236976  0.0839451349823990  0.5723199595231798
  0.4961484518366632  0.0835945120779708  0.5743006892433530
  0.7445751398191762  0.0853429224971815  0.5744845736494132
  0.0056410895956951  0.3341599419279658  0.5721460326336175
  0.2471903638260698  0.3334831288109948  0.5740805044448238
  0.4940115826374162  0.3351141279252141  0.5746308495031912
  0.7520631137624303  0.3359957636056525  0.5727654905962555
  0.9983319126997384  0.5834153619395719  0.5738341604037308
  0.2436602722482841  0.5848711707920560  0.5747314698663423
  0.5008774469650623  0.5860330196678466  0.5730244706471034
  0.7564554277165173  0.5847231170044133  0.5719127944488677
  0.9935336539974583  0.8346226579752738  0.5747828702123383
  0.2496608002935896  0.8360235609707607  0.5732947019791496
  0.5064292582141725  0.8349704419881873  0.5718953300343362
  0.7511521018965325  0.8334372872166165  0.5732077636846657
  0.1182159666356406  0.2080322872333148  0.6061092203826821
  0.3716836140076102  0.2055975543028062  0.6003275317521382
  0.6313750630220788  0.2070701900911552  0.5986322679175260
  0.8791244778873297  0.2096898581541196  0.6042010635542409
  0.1205071052243923  0.4557247956093016  0.6010680529962610
  0.3805636962550119  0.4566968605272565  0.5983372800195850
  0.6301990943888819  0.4595157337330785  0.6034234974233849
  0.8700967162770709  0.4588976658412852  0.6067930028665082
  0.1295553746120773  0.7063584346352014  0.5981900289868280
  0.3810896722174434  0.7092766529952363  0.6026134863704872
  0.6212168776090788  0.7092060677258630  0.6068385318695932
  0.8684427441983817  0.7062789851943581  0.6029456600897817
  0.1317646622094468  0.9589810854949232  0.6017997254409220
  0.3724711997755388  0.9594604833663272  0.6067306366528396
  0.6179252732873568  0.9566065024751534  0.6037458714259176
  0.8766478535493949  0.9557686987179823  0.5984401302954572
  0.9946299299884271  0.2495518878767972  0.4010945884268330
  0.2544805887293808  0.2482962596286562  0.3991832774845439
  0.5059389471977281  0.2454410746506717  0.3938874960276786
  0.7462714306285496  0.2463381458025727  0.3951337572319871
  0.0033396396068815  0.4986670505437737  0.3998278674437823
  0.2566044528097076  0.4956603521479536  0.3943294689091788
  0.4974959546373006  0.4959948919834060  0.3945446706864432
  0.7430872867697200  0.4990436022393687  0.4000700944838427
  0.0070361095686693  0.7459427772299320  0.3948794257279625
  0.2488093028817660  0.7457029345084824  0.3940559444479357
  0.4928205616479441  0.7487245128343286  0.3994587629162121
  0.7502952959880508  0.7493438085015350  0.4009607357533302
  0.0001649493456255  0.9954726161169043  0.3936848918871150
  0.2428082888894133  0.9983600215940552  0.3987737074884940
  0.4989381082984229  0.9995283537044317  0.4012457583417254
  0.7570645578452603  0.9967876685876674  0.3964673854551009
  0.1375450794998884  0.1180641787977441  0.4256091021096302
  0.3758179684705295  0.1213892234199992  0.4244313543309921
  0.6126181546529477  0.1226846162904950  0.4276357756673573
  0.8726876193477143  0.1195222484509059  0.4292159380069978
  0.1281440893324895  0.3709362960353468  0.4242825088329096
  0.3631319073458289  0.3728177556198408  0.4271712697632841
  0.6204260160827454  0.3699918956108772  0.4293064503709979
  0.8863541998235945  0.3677555615902233  0.4266858276399179
  0.1140672367971540  0.6228619291699918  0.4266925216011147
  0.3683275921377911  0.6204726844912829  0.4293070806393950
  0.6351553481128767  0.6177717660072414  0.4271646549518475
  0.8830082398526158  0.6198218265363118  0.4242810478696192
  0.1164666852272551  0.8709475829063408  0.4292178064846168
  0.3835978817918060  0.8678777613427319  0.4276294743386739
  0.6346735585242530  0.8693602391256202  0.4244286945259695
  0.8676774465614538  0.8726162317895854  0.4256150694172353
