generated by phonopy
   1.0
    21.0960000000000001    0.0000000000000000    0.0000000000000000
   -10.5570000000000004   18.2852603755046346    0.0000000000000000
     0.0000000000000000    0.0000000000000000   19.3808031145446442
Mo Te
  36   72
Direct
  0.0638339605644968  0.1276094978226138  0.1567272576887007
  0.2305006272311634  0.1276094978226138  0.1567272576887007
  0.3971672938978301  0.1276094978226138  0.1567272576887007
  0.5638339605644968  0.1276094978226138  0.1567272576887007
  0.7305006272311634  0.1276094978226138  0.1567272576887007
  0.8971672938978302  0.1276094978226138  0.1567272576887007
  0.0488873878986125  0.2644568686410216  0.1567272576887007
  0.2155540545652792  0.2644568686410216  0.1567272576887007
  0.3822207212319458  0.2644568686410216  0.1567272576887007
  0.5488873878986124  0.2644568686410216  0.1567272576887007
  0.7155540545652791  0.2644568686410216  0.1567272576887007
  0.8822207212319458  0.2644568686410216  0.1567272576887007
  0.0581198157015944  0.4495528736625009  0.1567272576887007
  0.2247864823682610  0.4495528736625009  0.1567272576887007
  0.3914531490349277  0.4495528736625010  0.1567272576887007
  0.5581198157015943  0.4495528736625009  0.1567272576887007
  0.7247864823682609  0.4495528736625008  0.1567272576887007
  0.8914531490349277  0.4495528736625008  0.1567272576887007
  0.0581280063835745  0.6162195403291675  0.1567272576887007
  0.2247946730502412  0.6162195403291675  0.1567272576887007
  0.3914613397169078  0.6162195403291675  0.1567272576887007
  0.5581280063835744  0.6162195403291675  0.1567272576887007
  0.7247946730502410  0.6162195403291675  0.1567272576887007
  0.8914613397169079  0.6162195403291675  0.1567272576887007
  0.0488823257787578  0.7644568686410216  0.1567272576887007
  0.2155489924454244  0.7644568686410216  0.1567272576887007
  0.3822156591120911  0.7644568686410216  0.1567272576887007
  0.5488823257787577  0.7644568686410216  0.1567272576887007
  0.7155489924454244  0.7644568686410216  0.1567272576887007
  0.8822156591120912  0.7644568686410216  0.1567272576887007
  0.0638339605644968  0.9609428311559470  0.1567272576887007
  0.2305006272311635  0.9609428311559470  0.1567272576887007
  0.3971672938978302  0.9609428311559470  0.1567272576887007
  0.5638339605644968  0.9609428311559470  0.1567272576887007
  0.7305006272311634  0.9609428311559470  0.1567272576887007
  0.8971672938978301  0.9609428311559470  0.1567272576887007
  0.1111408773174030  0.0555906047071087  0.2374996125051411
  0.2778075439840696  0.0555906047071087  0.2374996125051411
  0.4444742106507363  0.0555906047071087  0.2374996125051411
  0.6111408773174030  0.0555906047071087  0.2374996125051411
  0.7778075439840696  0.0555906047071087  0.2374996125051411
  0.9444742106507363  0.0555906047071087  0.2374996125051411
  0.1126352901821866  0.2252880365578855  0.2641619469429390
  0.2793019568488533  0.2252880365578855  0.2641619469429390
  0.4459686235155199  0.2252880365578855  0.2641619469429390
  0.6126352901821865  0.2252880365578854  0.2641619469429390
  0.7793019568488532  0.2252880365578854  0.2641619469429390
  0.9459686235155198  0.2252880365578854  0.2641619469429391
  0.1085886002421368  0.3838665813454629  0.2421478112923950
  0.2752552669088035  0.3838665813454629  0.2421478112923950
  0.4419219335754701  0.3838665813454629  0.2421478112923950
  0.6085886002421369  0.3838665813454629  0.2421478112923950
  0.7752552669088035  0.3838665813454629  0.2421478112923950
  0.9419219335754702  0.3838665813454630  0.2421478112923950
  0.1136418692422860  0.5605893389335374  0.2511050965701280
  0.2803085359089527  0.5605893389335374  0.2511050965701281
  0.4469752025756192  0.5605893389335374  0.2511050965701280
  0.6136418692422860  0.5605893389335374  0.2511050965701280
  0.7803085359089528  0.5605893389335374  0.2511050965701280
  0.9469752025756194  0.5605893389335374  0.2511050965701281
  0.1095121981857983  0.7190730305744960  0.2586260401943711
  0.2761788648524649  0.7190730305744960  0.2586260401943711
  0.4428455315191315  0.7190730305744960  0.2586260401943711
  0.6095121981857983  0.7190730305744960  0.2586260401943711
  0.7761788648524648  0.7190730305744959  0.2586260401943711
  0.9428455315191314  0.7190730305744959  0.2586260401943710
  0.1111408773174031  0.8889239380404420  0.2374996125051411
  0.2778075439840697  0.8889239380404420  0.2374996125051411
  0.4444742106507363  0.8889239380404420  0.2374996125051411
  0.6111408773174031  0.8889239380404420  0.2374996125051411
  0.7778075439840697  0.8889239380404420  0.2374996125051411
  0.9444742106507363  0.8889239380404420  0.2374996125051411
  0.1111408773174029  0.0555906047071087  0.0759548981883479
  0.2778075439840696  0.0555906047071087  0.0759548981883479
  0.4444742106507362  0.0555906047071087  0.0759548981883479
  0.6111408773174029  0.0555906047071087  0.0759548981883479
  0.7778075439840696  0.0555906047071087  0.0759548981883479
  0.9444742106507363  0.0555906047071087  0.0759548981883478
  0.1126352901821866  0.2252880365578855  0.0492925637505499
  0.2793019568488533  0.2252880365578855  0.0492925637505499
  0.4459686235155199  0.2252880365578855  0.0492925637505499
  0.6126352901821867  0.2252880365578855  0.0492925637505499
  0.7793019568488533  0.2252880365578854  0.0492925637505499
  0.9459686235155198  0.2252880365578854  0.0492925637505499
  0.1085886002421368  0.3838665813454629  0.0713066994010939
  0.2752552669088035  0.3838665813454629  0.0713066994010939
  0.4419219335754701  0.3838665813454629  0.0713066994010939
  0.6085886002421369  0.3838665813454629  0.0713066994010939
  0.7752552669088035  0.3838665813454629  0.0713066994010939
  0.9419219335754702  0.3838665813454629  0.0713066994010940
  0.1136418692422860  0.5605893389335374  0.0623494141233609
  0.2803085359089527  0.5605893389335374  0.0623494141233609
  0.4469752025756192  0.5605893389335374  0.0623494141233609
  0.6136418692422860  0.5605893389335374  0.0623494141233610
  0.7803085359089527  0.5605893389335374  0.0623494141233610
  0.9469752025756193  0.5605893389335374  0.0623494141233608
  0.1095121981857982  0.7190730305744959  0.0548284704991179
  0.2761788648524648  0.7190730305744959  0.0548284704991179
  0.4428455315191314  0.7190730305744959  0.0548284704991180
  0.6095121981857982  0.7190730305744959  0.0548284704991180
  0.7761788648524648  0.7190730305744959  0.0548284704991180
  0.9428455315191314  0.7190730305744959  0.0548284704991181
  0.1111408773174031  0.8889239380404420  0.0759548981883478
  0.2778075439840697  0.8889239380404420  0.0759548981883478
  0.4444742106507363  0.8889239380404420  0.0759548981883478
  0.6111408773174030  0.8889239380404420  0.0759548981883478
  0.7778075439840697  0.8889239380404420  0.0759548981883478
  0.9444742106507362  0.8889239380404420  0.0759548981883478
