generated by phonopy
   1.0
    21.0960000000000001    0.0000000000000000    0.0000000000000000
   -10.5570000000000004   18.2852603755046346    0.0000000000000000
     0.0000000000000000    0.0000000000000000   19.3808031145446442
Mo Te
  36   72
Direct
  0.0491314021387984  0.1169534907615994  0.1567272576887007
  0.2334413520513099  0.1113741742443332  0.1567272576887007
  0.3764221775481931  0.1048786776552804  0.1567272576887007
  0.5654427952463219  0.1214266524928273  0.1567272576887007
  0.7180471728804358  0.0999783145501891  0.1567272576887007
  0.8861062551689702  0.1196492010737900  0.1567272576887007
  0.0670568108412535  0.2866325116239066  0.1567272576887007
  0.2152386089955822  0.2665827212416438  0.1567272576887007
  0.3892349374111155  0.2878818109474686  0.1567272576887007
  0.5620091963920159  0.2719647688769308  0.1567272576887007
  0.7110325798128377  0.2775440853941970  0.1567272576887007
  0.9013850876492879  0.2840395819832497  0.1567272576887007
  0.0591299131156668  0.4364155318240490  0.1567272576887007
  0.2127868332218132  0.4470206584631062  0.1567272576887007
  0.4013020406424272  0.4481771874825445  0.1567272576887007
  0.5440837876895609  0.4356190813479568  0.1567272576887007
  0.7292353228685655  0.4556688717302196  0.1567272576887007
  0.8885723277863655  0.4343697820243949  0.1567272576887007
  0.0431915118613743  0.6043020083070870  0.1567272576887007
  0.2316041542489431  0.6216934490612859  0.1567272576887007
  0.3854644626440356  0.6001044563120268  0.1567272576887007
  0.5520106854151476  0.6191693944811478  0.1567272576887007
  0.7316870986423345  0.6085642678420907  0.1567272576887007
  0.8765052245550539  0.6074077388226524  0.1567272576887007
  0.0551136323210527  0.7875465560230394  0.1567272576887007
  0.2293390586400166  0.7725819783718507  0.1567272576887007
  0.3773673091374546  0.7768370858937343  0.1567272576887007
  0.5679490866694400  0.7846162513314430  0.1567272576887007
  0.7128697776152045  0.7672248105772442  0.1567272576887007
  0.8923428025534454  0.7888138033265033  0.1567272576887007
  0.0680635577590358  0.9488378939982318  0.1567272576887007
  0.2110895211268848  0.9351975710559283  0.1567272576887007
  0.3952345719991389  0.9557199510354243  0.1567272576887007
  0.5560269662097616  0.9347050369488239  0.1567272576887007
  0.7151348732241312  0.9496696146000128  0.1567272576887007
  0.9004399560600265  0.9454145070781291  0.1567272576887007
  0.1108060890115993  0.0558625767050099  0.2399507320648343
  0.2774935698213302  0.0556504473025539  0.2617244519835812
  0.4452023061993675  0.0550611077927699  0.2428626462380248
  0.6100884616077097  0.0562684288066505  0.2529400249520132
  0.7787197293171539  0.0548190186223050  0.2547846061694096
  0.9438493721963701  0.0560592525967243  0.2415923645900126
  0.1101630795059172  0.2228562880379792  0.2556365367441729
  0.2787891298076532  0.2214600515815215  0.2520231765132892
  0.4436575607538184  0.2228480132087976  0.2435589571437969
  0.6114014450563250  0.2219004601423864  0.2614654709371554
  0.7780472975799274  0.2221125895448423  0.2396917510184084
  0.9436718945352233  0.2227019290546264  0.2585535567639649
  0.1116372438756519  0.3884063402426198  0.2602300774862759
  0.2777919446257019  0.3889684593048922  0.2393621058110675
  0.4438672989761203  0.3892098833770568  0.2603456075229762
  0.6120444545620070  0.3882400821427504  0.2457796662578169
  0.7767517375936044  0.3896363185992082  0.2493930264887005
  0.9452166399807723  0.3882483569719320  0.2578572458581929
  0.1119107298068057  0.5550258600453245  0.2433928261775030
  0.2767463455260116  0.5562811921023367  0.2522370871443510
  0.4453594700824631  0.5548327135558113  0.2554414462717322
  0.6105702901922724  0.5560233632714431  0.2411861255157139
  0.7777489227755556  0.5554612442091706  0.2620540971909222
  0.9450069017584705  0.5552198201370061  0.2410705954790135
  0.1103680116848994  0.7228209593118428  0.2430198197371266
  0.2780056273403151  0.7219441705977657  0.2616708317614118
  0.4447756946005830  0.7220658315255704  0.2398841046676312
  0.6102968042611185  0.7227371768020715  0.2580233768244867
  0.7787945218752460  0.7214818447450593  0.2491791158576387
  0.9435147306521275  0.7229303232915848  0.2459747567302576
  0.1104812334551391  0.8892519126292737  0.2599505712525248
  0.2787355667164948  0.8882163621016373  0.2464311269931761
  0.4434298564318793  0.8896343443332024  0.2486879697766881
  0.6118395223830250  0.8882754108688865  0.2583963832648631
  0.7775352400609424  0.8891521995829635  0.2397453712405780
  0.9440985061340079  0.8890305386551590  0.2615320983343586
  0.1108060890115993  0.0558625767050099  0.0735037786286547
  0.2774935698213302  0.0556504473025539  0.0517300587099077
  0.4452023061993675  0.0550611077927699  0.0705918644554642
  0.6100884616077098  0.0562684288066504  0.0605144857414757
  0.7787197293171539  0.0548190186223050  0.0586699045240793
  0.9438493721963701  0.0560592525967243  0.0718621461034764
  0.1101630795059172  0.2228562880379792  0.0578179739493161
  0.2787891298076532  0.2214600515815215  0.0614313341801997
  0.4436575607538184  0.2228480132087976  0.0698955535496921
  0.6114014450563250  0.2219004601423865  0.0519890397563335
  0.7780472975799274  0.2221125895448423  0.0737627596750805
  0.9436718945352233  0.2227019290546264  0.0549009539295240
  0.1116372438756519  0.3884063402426198  0.0532244332072131
  0.2777919446257019  0.3889684593048922  0.0740924048824214
  0.4438672989761203  0.3892098833770568  0.0531089031705128
  0.6120444545620070  0.3882400821427504  0.0676748444356721
  0.7767517375936043  0.3896363185992081  0.0640614842047884
  0.9452166399807723  0.3882483569719320  0.0555972648352961
  0.1119107298068057  0.5550258600453245  0.0700616845159859
  0.2767463455260116  0.5562811921023367  0.0612174235491379
  0.4453594700824632  0.5548327135558114  0.0580130644217568
  0.6105702901922724  0.5560233632714431  0.0722683851777751
  0.7777489227755556  0.5554612442091706  0.0514004135025667
  0.9450069017584705  0.5552198201370061  0.0723839152144754
  0.1103680116848993  0.7228209593118426  0.0704346909563623
  0.2780056273403151  0.7219441705977657  0.0517836789320772
  0.4447756946005830  0.7220658315255704  0.0735704060258578
  0.6102968042611185  0.7227371768020715  0.0554311338690023
  0.7787945218752460  0.7214818447450593  0.0642753948358502
  0.9435147306521277  0.7229303232915848  0.0674797539632313
  0.1104812334551391  0.8892519126292737  0.0535039394409641
  0.2787355667164947  0.8882163621016373  0.0670233837003128
  0.4434298564318792  0.8896343443332023  0.0647665409168009
  0.6118395223830250  0.8882754108688865  0.0550581274286259
  0.7775352400609424  0.8891521995829635  0.0737091394529110
  0.9440985061340079  0.8890305386551590  0.0519224123591304
