generated by phonopy
   1.0
    21.0960000000000001    0.0000000000000000    0.0000000000000000
   -10.5570000000000004   18.2852603755046346    0.0000000000000000
     0.0000000000000000    0.0000000000000000   19.3808031145446442
Mo Te
  36   72
Direct
  0.0555337164659896  0.1116491996248586  0.1567272576887007
  0.2224078823696773  0.1114253617760990  0.1567272576887007
  0.3891233786120987  0.1109234235656395  0.1567272576887007
  0.5556348744318981  0.1106093575292230  0.1567272576887007
  0.7220864221277076  0.1107747257442730  0.1567272576887007
  0.8886777266238548  0.1112660092220127  0.1567272576887007
  0.0554802804394805  0.2773384105085567  0.1567272576887007
  0.2220113208053259  0.2777698275590371  0.1567272576887007
  0.3887518380145312  0.2782222582815393  0.1567272576887007
  0.5556332731810509  0.2782756902390356  0.1567272576887007
  0.7224562467390566  0.2778805200656029  0.1567272576887007
  0.8890756517471086  0.2774036025731030  0.1567272576887007
  0.0557588928819264  0.4447024653343632  0.1567272576887007
  0.2224470864580040  0.4441977882566061  0.1567272576887007
  0.3889402153981582  0.4439357266803383  0.1567272576887007
  0.5553993828278037  0.4441595645290979  0.1567272576887007
  0.7220172199187157  0.4446615027395575  0.1567272576887007
  0.8888390574322498  0.4449755687759738  0.1567272576887007
  0.0553418483773368  0.6111689391886460  0.1567272576887007
  0.2221077898032940  0.6115897480383876  0.1567272576887007
  0.3889936514246672  0.6115798491299734  0.1567272576887007
  0.5557959443921551  0.6111484320794931  0.1567272576887007
  0.7223887605162832  0.6106960013569909  0.1567272576887007
  0.8888406586830967  0.6106425693994945  0.1567272576887007
  0.0557674805776953  0.7774762744601337  0.1567272576887007
  0.2222449794318180  0.7772703502116203  0.1567272576887007
  0.3887150389822213  0.7775491276375003  0.1567272576887007
  0.5553601787394771  0.7780538047152573  0.1567272576887007
  0.7222003831326561  0.7783158662915252  0.1567272576887007
  0.8890745490363440  0.7780920284427656  0.1567272576887007
  0.0554657787767738  0.9449499210021025  0.1567272576887007
  0.2223526100176238  0.9448768473394766  0.1567272576887007
  0.3891320834868110  0.9444159871165507  0.1567272576887007
  0.5556994753941870  0.9439951782668090  0.1567272576887007
  0.7221469471061471  0.9440050771752233  0.1567272576887007
  0.8886779874719926  0.9444364942257036  0.1567272576887007
  0.1122173456229918  0.0563874209771271  0.2468374227535042
  0.2792217080382379  0.0616069399165799  0.2486862969840308
  0.4448787851321784  0.0612018355637912  0.2524121061796876
  0.6101258257602696  0.0555481850903648  0.2545560087491853
  0.7762807346590251  0.0498945346169384  0.2531277204386507
  0.9438186003150962  0.0494894302641497  0.2494531875736737
  0.1096212028051985  0.2179466375566385  0.2539430909013010
  0.2767582806431731  0.2155716156619504  0.2506462666745960
  0.4448349871384495  0.2193638181471923  0.2474068465869940
  0.6125423168781220  0.2258027674490375  0.2472321346474382
  0.7789141740343020  0.2289108880986755  0.2502843240578068
  0.9442242439576962  0.2258027674490375  0.2537299257362158
  0.1124937292043234  0.3952498274197678  0.2491159964697225
  0.2780283375456039  0.3940409030990428  0.2528343237593532
  0.4433235217782657  0.3880422825369358  0.2545787802484855
  0.6096524926963530  0.3828227635974830  0.2527299060179590
  0.7773287489357458  0.3832278679502717  0.2490040968223021
  0.9454150416409879  0.3888815184236981  0.2468601942528044
  0.1102391635110710  0.5490625170435429  0.2501616295771596
  0.2783470759212709  0.5534789960658445  0.2471794786702819
  0.4459196645960590  0.5598163992907577  0.2474731121006887
  0.6121159200914178  0.5621914211854457  0.2507699363273937
  0.7773725469294747  0.5583992187002039  0.2540093564149957
  0.9429985505231355  0.5519602693983587  0.2541840683545515
  0.1111738226613298  0.7267986040558971  0.2532230095438609
  0.2765387795958305  0.7205496152347762  0.2545405088317064
  0.4430471381969342  0.7158465427609616  0.2523002065322672
  0.6108458631889870  0.7170554670816867  0.2485818792426365
  0.7788840122896584  0.7230540876437936  0.2468374227535042
  0.9458883747049045  0.7282736065832465  0.2486862969840308
  0.1118500707118033  0.8876268063314869  0.2470077592435072
  0.2792736313904675  0.8937627188448301  0.2477651072692711
  0.4453017038901865  0.8953671864705197  0.2512545734248300
  0.6105271248133201  0.8909507074482182  0.2542367243317079
  0.7762878694718651  0.8846133042233050  0.2539430909013010
  0.9434249473098397  0.8822382823286169  0.2506462666745960
  0.1122173456229918  0.0563874209771272  0.0666170879399847
  0.2792217080382379  0.0616069399165800  0.0647682137094582
  0.4448787851321784  0.0612018355637912  0.0610424045138013
  0.6101258257602696  0.0555481850903648  0.0588985019443037
  0.7762807346590251  0.0498945346169384  0.0603267902548382
  0.9438186003150962  0.0494894302641496  0.0640013231198152
  0.1096212028051985  0.2179466375566385  0.0595114197921880
  0.2767582806431731  0.2155716156619504  0.0628082440188930
  0.4448349871384495  0.2193638181471923  0.0660476641064950
  0.6125423168781220  0.2258027674490375  0.0662223760460507
  0.7789141740343020  0.2289108880986755  0.0631701866356822
  0.9442242439576962  0.2258027674490375  0.0597245849572732
  0.1124937292043233  0.3952498274197678  0.0643385142237664
  0.2780283375456039  0.3940409030990428  0.0606201869341358
  0.4433235217782657  0.3880422825369358  0.0588757304450035
  0.6096524926963530  0.3828227635974830  0.0607246046755300
  0.7773287489357458  0.3832278679502716  0.0644504138711869
  0.9454150416409879  0.3888815184236981  0.0665943164406845
  0.1102391635110710  0.5490625170435429  0.0632928811163293
  0.2783470759212709  0.5534789960658445  0.0662750320232070
  0.4459196645960589  0.5598163992907577  0.0659813985928002
  0.6121159200914178  0.5621914211854458  0.0626845743660952
  0.7773725469294747  0.5583992187002039  0.0594451542784932
  0.9429985505231355  0.5519602693983587  0.0592704423389375
  0.1111738226613298  0.7267986040558971  0.0602315011496281
  0.2765387795958305  0.7205496152347761  0.0589140018617826
  0.4430471381969341  0.7158465427609616  0.0611543041612218
  0.6108458631889870  0.7170554670816867  0.0648726314508524
  0.7788840122896584  0.7230540876437936  0.0666170879399847
  0.9458883747049045  0.7282736065832465  0.0647682137094582
  0.1118500707118033  0.8876268063314869  0.0664467514499817
  0.2792736313904675  0.8937627188448301  0.0656894034242178
  0.4453017038901865  0.8953671864705197  0.0621999372686589
  0.6105271248133201  0.8909507074482182  0.0592177863617811
  0.7762878694718651  0.8846133042233050  0.0595114197921880
  0.9434249473098397  0.8822382823286169  0.0628082440188929
