generated by phonopy
   1.0
    21.0960000000000001    0.0000000000000000    0.0000000000000000
   -10.5570000000000004   18.2852603755046346    0.0000000000000000
     0.0000000000000000    0.0000000000000000   19.3808031145446442
Mo Te
  36   72
Direct
  0.0555702992654072  0.1111257964859318  0.1601553806791149
  0.2222369659320739  0.1111257964859318  0.1599146458359208
  0.3889036325987405  0.1111257964859318  0.1592262517996547
  0.5555702992654071  0.1111257964859318  0.1581868814669572
  0.7222369659320739  0.1111257964859318  0.1569425113122792
  0.8889036325987406  0.1111257964859318  0.1556679094258552
  0.0555702992654072  0.2777924631525984  0.1534669189800059
  0.2222369659320738  0.2777924631525984  0.1533058993159278
  0.3889036325987405  0.2777924631525984  0.1536253992677931
  0.5555702992654070  0.2777924631525984  0.1543805460168450
  0.7222369659320736  0.2777924631525984  0.1554652814463064
  0.8889036325987404  0.2777924631525984  0.1567272576887007
  0.0555702992654072  0.4444591298192651  0.1595006674467533
  0.2222369659320739  0.4444591298192651  0.1600476798914938
  0.3889036325987406  0.4444591298192651  0.1601283489054048
  0.5555702992654071  0.4444591298192651  0.1597313447652126
  0.7222369659320739  0.4444591298192651  0.1589124255225997
  0.8889036325987406  0.4444591298192651  0.1577866059515461
  0.0555702992654072  0.6111257964859318  0.1547122575518904
  0.2222369659320739  0.6111257964859318  0.1538327977158384
  0.3889036325987406  0.6111257964859318  0.1533598561812868
  0.5555702992654071  0.6111257964859318  0.1533598561812868
  0.7222369659320738  0.6111257964859318  0.1538327977158384
  0.8889036325987406  0.6111257964859318  0.1547122575518904
  0.0555702992654072  0.7777924631525984  0.1577866059515462
  0.2222369659320739  0.7777924631525984  0.1589124255225997
  0.3889036325987406  0.7777924631525984  0.1597313447652126
  0.5555702992654071  0.7777924631525984  0.1601283489054048
  0.7222369659320738  0.7777924631525984  0.1600476798914938
  0.8889036325987406  0.7777924631525984  0.1595006674467533
  0.0555702992654072  0.9444591298192651  0.1567272576887007
  0.2222369659320739  0.9444591298192651  0.1554652814463063
  0.3889036325987406  0.9444591298192651  0.1543805460168450
  0.5555702992654071  0.9444591298192651  0.1536253992677931
  0.7222369659320738  0.9444591298192651  0.1533058993159278
  0.8889036325987405  0.9444591298192651  0.1534669189800059
  0.1115520099349029  0.0564806587004268  0.2502507560344536
  0.2780988061671314  0.0563242289389219  0.2502898934502850
  0.4445994834622891  0.0560588061251160  0.2503877669440177
  0.6110773545343213  0.0557216681044309  0.2505306304743151
  0.7775589351634361  0.0553601649099730  0.2506984192829054
  0.9440702201335730  0.0550250685910971  0.2508675679302531
  0.1106032622338438  0.2212516714728288  0.2511489565755582
  0.2773381524235205  0.2212997310830994  0.2511633469363097
  0.4441337552339236  0.2214763166724896  0.2511137994285588
  0.6109719619668350  0.2217566273197426  0.2510072728525251
  0.7778286803297291  0.2221012942274721  0.2508587285492394
  0.9446772181266619  0.2224619099527607  0.2506890291246577
  0.1116075408362004  0.3897811225849521  0.2503268907847255
  0.2782643090850587  0.3898461375354201  0.2502603812761652
  0.4448517140038610  0.3897756745982791  0.2502567527426579
  0.6113808876695469  0.3895796300836506  0.2503165148009512
  0.7778711405655054  0.3892855378610136  0.2504312740475576
  0.9443472494815702  0.3889347023090611  0.2505849128873300
  0.1106460371193655  0.5548002165752738  0.2509923522980105
  0.2772633081725375  0.5546284911804048  0.2511044705402827
  0.4439518034990660  0.5545859340620649  0.2511609199289072
  0.6107084573285438  0.5546785222410547  0.2511537723150065
  0.7775206312313754  0.5548932519827865  0.2510840315597120
  0.9443678891486564  0.5551999651331628  0.2509614925448507
  0.1114706472676846  0.7227379682562990  0.2505486350717366
  0.2782411683923406  0.7229995944174381  0.2504018830104797
  0.4449455762284640  0.7231510058040028  0.2502981384262027
  0.6115785701409630  0.7231709371367110  0.2502519719374617
  0.7781448793680923  0.7230565891191152  0.2502698674904038
  0.9446585988139952  0.7228240215904701  0.2503493117077998
  0.1108636492745955  0.8886344602279688  0.2507271738773320
  0.2773821686367226  0.8883085430920686  0.2508941946433360
  0.4439552186732383  0.8880630986387412  0.2510350791805254
  0.6105959475616398  0.8879325988120503  0.2511300406743293
  0.7773079981858028  0.8879353719248383  0.2511657420651474
  0.9440849965037681  0.8880710285016551  0.2511371691987356
  0.1106555241330213  0.0546157114803028  0.0622890637259529
  0.2774420612341262  0.0547721412418077  0.0623282011417842
  0.4442747172723017  0.0550375640556136  0.0624260746355169
  0.6111301795336029  0.0553747020762987  0.0625689381658143
  0.7779819322378215  0.0557362052707566  0.0627367269744047
  0.9448039806010178  0.0560713015896325  0.0629058756217523
  0.1116042718340804  0.2231780320412342  0.0631872642670575
  0.2782027149777371  0.2231299724309636  0.0632016546278089
  0.4447404455006671  0.2229533868415734  0.0631521071200580
  0.6112355721010891  0.2226730761943204  0.0630455805440244
  0.7777121870715283  0.2223284092865909  0.0628970362407387
  0.9441969826079289  0.2219677935613023  0.0627273368161570
  0.1105999932317239  0.3879819142624442  0.0623651984762248
  0.2772765583161989  0.3879168993119761  0.0622986889676645
  0.4440224867307298  0.3879873622491171  0.0622950604341571
  0.6108266463983774  0.3881834067637456  0.0623548224924505
  0.7776697268357523  0.3884774989863826  0.0624695817390569
  0.9445269512530206  0.3888283345383352  0.0626232205788292
  0.1115614969485588  0.5562961536054556  0.0630306599895097
  0.2782775592287201  0.5564678790003246  0.0631427782317820
  0.4449223972355247  0.5565104361186646  0.0631992276204064
  0.6114990767393803  0.5564178479396746  0.0631920800065058
  0.7780202361698823  0.5562031181979429  0.0631223392512112
  0.9445063115859342  0.5558964050475665  0.0629998002363500
  0.1107368868002397  0.7216917352577638  0.0625869427632358
  0.2772996990089169  0.7214301090966246  0.0624401907019789
  0.4439286245061267  0.7212786977100598  0.0623364461177020
  0.6106289639269613  0.7212587663773518  0.0622902796289609
  0.7773959880331652  0.7213731143949474  0.0623081751819030
  0.9442156019205956  0.7216056819235925  0.0623876193992991
  0.1113438847933287  0.8891285766194271  0.0627654815688312
  0.2781586987645350  0.8894544937553273  0.0629325023348352
  0.4449189820613524  0.8896999382086547  0.0630733868720246
  0.6116115865062846  0.8898304380353456  0.0631683483658286
  0.7782328692154548  0.8898276649225576  0.0632040497566466
  0.9447892042308227  0.8896920083457408  0.0631754768902349
