generated by phonopy
   1.0
    21.0960000000000001    0.0000000000000000    0.0000000000000000
   -10.5570000000000004   18.2852603755046346    0.0000000000000000
     0.0000000000000000    0.0000000000000000   19.3808031145446442
Mo Te
  36   72
Direct
  0.0597403941234758  0.0850222843956798  0.1567272576887007
  0.2290941862531326  0.0936305114656062  0.1567272576887007
  0.3963130229574515  0.1076857931616279  0.1567272576887007
  0.5612249893259585  0.1228120997651982  0.1567272576887007
  0.7243764010297273  0.1342999442193766  0.1567272576887007
  0.8868617121336851  0.1385726533687787  0.1567272576887007
  0.0525475916190218  0.2566442964517930  0.1567272576887007
  0.2233590918426999  0.2505620329342515  0.1567272576887007
  0.3938212247296679  0.2529578045398354  0.1567272576887007
  0.5627522940795229  0.2630857017968153  0.1567272576887007
  0.7294472913658836  0.2777924631525985  0.1567272576887007
  0.8938973960160709  0.2924992245083813  0.1567272576887007
  0.0481609089066963  0.4478991331435690  0.1567272576887007
  0.2165822758715225  0.4327728265399986  0.1567272576887007
  0.3867641975010871  0.4212849820858203  0.1567272576887007
  0.5576122197304626  0.4170122729364182  0.1567272576887007
  0.7278245019703281  0.4212849820858204  0.1567272576887007
  0.8962971375573791  0.4327728265399984  0.1567272576887007
  0.0506527071344798  0.6359604550986948  0.1567272576887007
  0.2150549711179580  0.6258325578417148  0.1567272576887007
  0.3816933071649307  0.6111257964859318  0.1567272576887007
  0.5505765358480768  0.5964190351301486  0.1567272576887007
  0.7210145435526788  0.5862911378731687  0.1567272576887007
  0.8918331453127074  0.5838953662675849  0.1567272576887007
  0.0577097343630607  0.8009666108860432  0.1567272576887007
  0.2201950454670184  0.8052393200354453  0.1567272576887007
  0.3833160965604863  0.8009666108860432  0.1567272576887007
  0.5481767943067686  0.7894787664318649  0.1567272576887007
  0.7153394165624959  0.7743524598282945  0.1567272576887007
  0.8846495504568521  0.7602971781322728  0.1567272576887007
  0.0627806246992170  0.9444591298192651  0.1567272576887007
  0.2272307293494043  0.9591658911750481  0.1567272576887007
  0.3901260549781355  0.9692937884320280  0.1567272576887007
  0.5526407865514404  0.9716895600376120  0.1567272576887007
  0.7160676047676481  0.9656072965200704  0.1567272576887007
  0.8814152174854428  0.9529406750382418  0.1567272576887007
  0.1077675756371930  0.0612335059346704  0.2475790952611460
  0.2737335954845995  0.0564713510426366  0.2459411057069888
  0.4409564612910098  0.0514217738328107  0.2457872924015838
  0.6092630037085887  0.0476569306243754  0.2471655442176065
  0.7781426570172087  0.0463489833221642  0.2496467505162953
  0.9469064207740917  0.0479051536659156  0.2524584022341014
  0.1112385565600459  0.2313705455314015  0.2523800996880512
  0.2757211941784228  0.2304399167415166  0.2495655321837346
  0.4408418505319298  0.2269484620936006  0.2471066969511694
  0.6070818668858566  0.2219832255637670  0.2457691379533597
  0.7745740783187421  0.2170901044939605  0.2459692963582106
  0.9430614562978898  0.2137925434995943  0.2476448540174994
  0.1145844061102476  0.3930079296812521  0.2556289106004059
  0.2796111970260022  0.3967727728896875  0.2542506587843832
  0.4440648770507155  0.3980807201918988  0.2517694524856944
  0.6086344466271658  0.3965245498481473  0.2489578007678883
  0.7739728246642684  0.3925887663898013  0.2466910949423183
  0.9404935660550161  0.3874987529683317  0.2456750606052707
  0.1146990168693277  0.5508145747537956  0.2543095060508204
  0.2817923338487343  0.5557798112836292  0.2556470650486300
  0.4476334557491820  0.5606729323534357  0.2554469066437791
  0.6124794111033677  0.5639704933478019  0.2537713489844903
  0.7768970677254430  0.5646458179451745  0.2511420671442885
  0.9415866417338243  0.5624886477834887  0.2483776726401820
  0.1114759903505421  0.7130156499888307  0.2496467505162953
  0.2802397541074251  0.7145718203325822  0.2524584022341014
  0.4482347094036557  0.7185076037909282  0.2547251080596714
  0.6150473013462414  0.7235976172123976  0.2557411423967190
  0.7806320969543340  0.7282571146999050  0.2551901688992255
  0.9453259304519886  0.7310353889734535  0.2532437299418873
  0.1079074116520755  0.8837567711606270  0.2459692963582106
  0.2763947896312232  0.8804592101662607  0.2476448540174994
  0.4453104663424812  0.8797838855688880  0.2502741358577011
  0.6139542256674331  0.8819410557305738  0.2530385303618077
  0.7817105113748987  0.8862590983430887  0.2550773594754487
  0.9482400769518906  0.8913936161039109  0.2557558456832896
  0.1077675756371930  0.0612335059346704  0.0658754154323429
  0.2737335954845995  0.0564713510426366  0.0675134049865002
  0.4409564612910098  0.0514217738328107  0.0676672182919052
  0.6092630037085885  0.0476569306243754  0.0662889664758824
  0.7781426570172087  0.0463489833221642  0.0638077601771937
  0.9469064207740917  0.0479051536659156  0.0609961084593875
  0.1112385565600459  0.2313705455314015  0.0610744110054377
  0.2757211941784228  0.2304399167415166  0.0638889785097543
  0.4408418505319298  0.2269484620936006  0.0663478137423196
  0.6070818668858566  0.2219832255637670  0.0676853727401292
  0.7745740783187421  0.2170901044939605  0.0674852143352783
  0.9430614562978898  0.2137925434995942  0.0658096566759895
  0.1145844061102476  0.3930079296812522  0.0578256000930830
  0.2796111970260022  0.3967727728896875  0.0592038519091058
  0.4440648770507155  0.3980807201918988  0.0616850582077945
  0.6086344466271658  0.3965245498481473  0.0644967099256006
  0.7739728246642684  0.3925887663898013  0.0667634157511706
  0.9404935660550161  0.3874987529683317  0.0677794500882183
  0.1146990168693277  0.5508145747537956  0.0591450046426686
  0.2817923338487343  0.5557798112836292  0.0578074456448590
  0.4476334557491820  0.5606729323534357  0.0580076040497099
  0.6124794111033677  0.5639704933478019  0.0596831617089987
  0.7768970677254431  0.5646458179451747  0.0623124435492004
  0.9415866417338243  0.5624886477834887  0.0650768380533069
  0.1114759903505421  0.7130156499888307  0.0638077601771937
  0.2802397541074251  0.7145718203325822  0.0609961084593876
  0.4482347094036557  0.7185076037909282  0.0587294026338176
  0.6150473013462414  0.7235976172123976  0.0577133682967699
  0.7806320969543340  0.7282571146999050  0.0582643417942634
  0.9453259304519886  0.7310353889734535  0.0602107807516017
  0.1079074116520755  0.8837567711606270  0.0674852143352783
  0.2763947896312232  0.8804592101662607  0.0658096566759895
  0.4453104663424812  0.8797838855688880  0.0631803748357878
  0.6139542256674332  0.8819410557305740  0.0604159803316813
  0.7817105113748987  0.8862590983430887  0.0583771512180402
  0.9482400769518906  0.8913936161039109  0.0576986650101993
