generated by phonopy
   1.0
    21.0960000000000001    0.0000000000000000    0.0000000000000000
   -10.5570000000000004   18.2852603755046346    0.0000000000000000
     0.0000000000000000    0.0000000000000000   19.3808031145446442
Mo Te
  36   72
Direct
  0.0555702992654072  0.1111257964859318  0.1574215821153521
  0.2222369659320739  0.1111257964859318  0.1578519651635630
  0.3889036325987405  0.1111257964859318  0.1565923400120832
  0.5555702992654071  0.1111257964859318  0.1555354448902893
  0.7222369659320739  0.1111257964859318  0.1562693917846011
  0.8889036325987406  0.1111257964859318  0.1576913372470577
  0.0555702992654072  0.2777924631525984  0.1555657372025216
  0.2222369659320739  0.2777924631525984  0.1561335175471935
  0.3889036325987405  0.2777924631525984  0.1575934638372864
  0.5555702992654070  0.2777924631525984  0.1577518312489145
  0.7222369659320736  0.2777924631525984  0.1563706537062782
  0.8889036325987404  0.2777924631525984  0.1555253165201845
  0.0555702992654072  0.4444591298192651  0.1578228670947620
  0.2222369659320739  0.4444591298192651  0.1565175194974361
  0.3889036325987406  0.4444591298192651  0.1555273287483999
  0.5555702992654071  0.4444591298192651  0.1563401754944267
  0.7222369659320739  0.4444591298192651  0.1577346597745664
  0.8889036325987406  0.4444591298192651  0.1576154013051018
  0.0555702992654072  0.6111257964859318  0.1562004150623199
  0.2222369659320739  0.6111257964859318  0.1576442099379782
  0.3889036325987405  0.6111257964859318  0.1577101738178983
  0.5555702992654071  0.6111257964859318  0.1562991880419485
  0.7222369659320738  0.6111257964859318  0.1555314283752041
  0.8889036325987406  0.6111257964859318  0.1565605460213691
  0.0555702992654072  0.7777924631525984  0.1564435267236098
  0.2222369659320739  0.7777924631525984  0.1555239481778424
  0.3889036325987406  0.7777924631525984  0.1564124868408321
  0.5555702992654071  0.7777924631525984  0.1577740065462805
  0.7222369659320738  0.7777924631525984  0.1575626602471321
  0.8889036325987406  0.7777924631525984  0.1560960211671080
  0.0555702992654072  0.9444591298192651  0.1576913372470577
  0.2222369659320739  0.9444591298192651  0.1576646372659718
  0.3889036325987406  0.9444591298192651  0.1562294117729480
  0.5555702992654071  0.9444591298192651  0.1555422596222015
  0.7222369659320738  0.9444591298192651  0.1566357095335568
  0.8889036325987405  0.9444591298192651  0.1578667215544541
  0.1270253556872700  0.0637698227634177  0.2536949735652545
  0.2786322847789361  0.0528405280406606  0.2504646792383751
  0.4289441790088218  0.0459798135649678  0.2476001561266866
  0.6025360502266693  0.0534967276700642  0.2494056945947120
  0.7890019460069702  0.0640962031870057  0.2531682560221707
  0.9585911442308978  0.0618512538225389  0.2532341395078363
  0.1008745580677022  0.2190074536325389  0.2490557125020383
  0.2874433010058610  0.2301549344921441  0.2529011594042367
  0.4594773978909529  0.2293714864404736  0.2534512731449577
  0.6089116395168984  0.2178343343657295  0.2498794416909750
  0.7616398162872322  0.2128794363220563  0.2475527712277281
  0.9386061850354850  0.2219521223260114  0.2499673638517617
  0.1109456603239025  0.3856025662101967  0.2502676046485613
  0.2620024379137329  0.3793532976811231  0.2475719634503707
  0.4367525248912369  0.3874213263544938  0.2495887467175422
  0.6230496104047565  0.3976834691644144  0.2532874951220304
  0.7913966300566311  0.3947196227659810  0.2531103945015857
  0.9392686514650217  0.3829833227032599  0.2493235598304670
  0.1215766226279674  0.5638085354207208  0.2530393078163536
  0.2923964655270689  0.5622913428797421  0.2533479153961110
  0.4412389371824640  0.5506417450595588  0.2496898852250613
  0.5948870335243809  0.5463646632657027  0.2475618474243361
  0.7729027216320996  0.5558869271084682  0.2501614346342959
  0.9582327323467295  0.5649001903435471  0.2535824545348613
  0.0951229258943027  0.7127643853315192  0.2475561476781755
  0.2709993270644601  0.7213516877499222  0.2497762164223181
  0.4570501300162949  0.7312359978634780  0.2533965545336808
  0.6241483395105641  0.7275649513787603  0.2529771687423650
  0.7716455105662691  0.7158547369930816  0.2491482366207605
  0.9283461150043388  0.7137013596892979  0.2476631890175089
  0.1252578108975644  0.8951845871558720  0.2532341395078363
  0.2735788565370186  0.8834685192306505  0.2495043471936100
  0.4281982507999712  0.8798861333744390  0.2475833404483979
  0.6072184688644024  0.8898203950309362  0.2503576628612048
  0.7920768145411737  0.8983438817079885  0.2536585614620166
  0.9554381030108001  0.8926490299314258  0.2525260392503668
  0.0951821783806543  0.0473265474173119  0.0657332812567537
  0.2769085826223215  0.0582558421400690  0.0625029869298744
  0.4599300217257689  0.0651165566157618  0.0596384638181858
  0.6196714838412549  0.0575996425106654  0.0614440022862113
  0.7665389213942874  0.0470001669937239  0.0652065637136700
  0.9302830565036930  0.0492451163581907  0.0652724471993356
  0.1213329760002221  0.2254222498815241  0.0610940201935376
  0.2680975663953966  0.2142747690219189  0.0649394670957359
  0.4293968028436378  0.2150582170735894  0.0654895808364570
  0.6132958945510257  0.2265953691483335  0.0619177493824742
  0.7939010511140253  0.2315502671920067  0.0595910789192274
  0.9502680156991059  0.2224775811880516  0.0620056715432609
  0.1112618737440218  0.3921604706371995  0.0623059123400605
  0.2935384294875247  0.3984097391662732  0.0596102711418700
  0.4521216758433538  0.3903417104929024  0.0616270544090414
  0.5991579236631678  0.3800795676829819  0.0653258028135297
  0.7641442373446266  0.3830434140814152  0.0651487021930849
  0.9496055492695690  0.3947797141441364  0.0613618675219662
  0.1006309114399569  0.5472878347600085  0.0650776155078529
  0.2631444018741886  0.5488050273009871  0.0653862230876102
  0.4476352635521266  0.5604546251211706  0.0617281929165606
  0.6273205005435433  0.5647317069150268  0.0596001551158354
  0.7826381457691580  0.5552094430722612  0.0621997423257952
  0.9306414683878612  0.5461961798371824  0.0656207622263606
  0.1270846081736216  0.7316653181825434  0.0595944553696747
  0.2845415403367975  0.7230780157641404  0.0618145241138173
  0.4318240707182959  0.7131937056505846  0.0654348622251800
  0.5980591945573601  0.7168647521353024  0.0650154764338642
  0.7838953568349883  0.7285749665209811  0.0611865443122598
  0.9605280857302521  0.7307283438247647  0.0597014967090082
  0.0969497231703599  0.8825784496915239  0.0652724471993355
  0.2819620108642389  0.8942945176167455  0.0615426548851093
  0.4606759499346196  0.8978769034729569  0.0596216481398972
  0.6149890652035218  0.8879426418164598  0.0623959705527040
  0.7634640528600838  0.8794191551394074  0.0656968691535158
  0.9334360977237904  0.8851140069159700  0.0645643469418660
