generated by phonopy
   1.0
    21.0960000000000001    0.0000000000000000    0.0000000000000000
   -10.5570000000000004   18.2852603755046346    0.0000000000000000
     0.0000000000000000    0.0000000000000000   19.3808031145446442
Mo Te
  36   72
Direct
  0.0529175660454577  0.1093909778813796  0.1567272576887007
  0.2241404686591441  0.1090672452686393  0.1567272576887007
  0.3915563658186901  0.1128606150904840  0.1567272576887007
  0.5536667965383368  0.1131843477032242  0.1567272576887007
  0.7195842327121243  0.1093909778813796  0.1567272576887007
  0.8908071353258107  0.1090672452686394  0.1567272576887007
  0.0575049837887291  0.2800785010009825  0.1567272576887007
  0.2196068876132007  0.2792141732709672  0.1567272576887007
  0.3869689480754187  0.2755064253042143  0.1567272576887007
  0.5582003775842802  0.2763707530342296  0.1567272576887007
  0.7241716504553957  0.2800785010009825  0.1567272576887007
  0.8862735542798674  0.2792141732709672  0.1567272576887007
  0.0545430438395955  0.4418456460394113  0.1567272576887007
  0.2253361694520654  0.4438134276918427  0.1567272576887007
  0.3899308880245523  0.4470726135991189  0.1567272576887007
  0.5524710957454155  0.4451048319466875  0.1567272576887007
  0.7212097105062620  0.4418456460394113  0.1567272576887007
  0.8920028361187321  0.4438134276918427  0.1567272576887007
  0.0555895706753209  0.6138109001956710  0.1567272576887007
  0.2189720088449213  0.6109322847993044  0.1567272576887007
  0.3888843611888268  0.6084406927761926  0.1567272576887007
  0.5588352563525597  0.6113193081725591  0.1567272576887007
  0.7222562373419874  0.6138109001956710  0.1567272576887007
  0.8856386755115880  0.6109322847993044  0.1567272576887007
  0.0565608982912655  0.7752985761723006  0.1567272576887007
  0.2253480798384032  0.7788062463811132  0.1567272576887007
  0.3879130335728822  0.7802863501328962  0.1567272576887007
  0.5524591853590778  0.7767786799240836  0.1567272576887007
  0.7232275649579322  0.7752985761723006  0.1567272576887007
  0.8920147465050698  0.7788062463811132  0.1567272576887007
  0.0536667965383369  0.9465176810365574  0.1567272576887007
  0.2195842327121244  0.9427243112147128  0.1567272576887007
  0.3908071353258109  0.9424005786019726  0.1567272576887007
  0.5582230324853567  0.9461939484238172  0.1567272576887007
  0.7203334632050035  0.9465176810365574  0.1567272576887007
  0.8862508993787910  0.9427243112147128  0.1567272576887007
  0.1131929995960716  0.0569592923118342  0.2500775072892399
  0.2833006493323505  0.0580930986485478  0.2524384434325113
  0.4423478678051858  0.0541370778688953  0.2513386957127497
  0.6055735514022403  0.0530032715321818  0.2489777595694785
  0.7798596662627383  0.0569592923118342  0.2500775072892399
  0.9499673159990170  0.0580930986485478  0.2524384434325113
  0.1074078581789519  0.2200863875001681  0.2507731271723042
  0.2731564944544559  0.2202305512464330  0.2488675842036207
  0.4481330092223056  0.2243433160138949  0.2506430758296855
  0.6157177062801350  0.2241991522676300  0.2525486187983690
  0.7740745248456186  0.2200863875001681  0.2507731271723042
  0.9398231611211226  0.2202305512464330  0.2488675842036207
  0.1160445708722336  0.3915189908046112  0.2512150095358993
  0.2810164520406325  0.3901109687273002  0.2524786315075217
  0.4394962965290239  0.3862440460427850  0.2502011934660904
  0.6078577486939585  0.3876520681200960  0.2489375714944680
  0.7827112375389003  0.3915189908046112  0.2512150095358993
  0.9476831187072990  0.3901109687273002  0.2524786315075217
  0.1054017085167241  0.5526598787583963  0.2496788794501690
  0.2762100791582536  0.5551939321555596  0.2491808705983621
  0.4501391588845334  0.5584364914223331  0.2517373235518207
  0.6126641215763373  0.5559024380251698  0.2522353324036277
  0.7720683751833908  0.5526598787583963  0.2496788794501690
  0.9428767458249203  0.5551939321555596  0.2491808705983621
  0.1170089230139217  0.7250712644922684  0.2521588901423956
  0.2774923860711385  0.7216592305775554  0.2518425372981405
  0.4385319443873358  0.7193584390217943  0.2492573128595942
  0.6113818146634524  0.7227704729365072  0.2495736657038492
  0.7836755896805884  0.7250712644922684  0.2521588901423956
  0.9441590527378051  0.7216592305775554  0.2518425372981405
  0.1055735514022404  0.8863366048655149  0.2489777595694785
  0.2798596662627383  0.8902926256451674  0.2500775072892399
  0.4499673159990171  0.8914264319818810  0.2524384434325113
  0.6090145344718526  0.8874704112022285  0.2513386957127497
  0.7722402180689071  0.8863366048655149  0.2489777595694785
  0.9465263329294049  0.8902926256451674  0.2500775072892399
  0.1131929995960716  0.0569592923118342  0.0633770034042490
  0.2833006493323505  0.0580930986485478  0.0610160672609777
  0.4423478678051858  0.0541370778688954  0.0621158149807392
  0.6055735514022403  0.0530032715321818  0.0644767511240105
  0.7798596662627383  0.0569592923118342  0.0633770034042490
  0.9499673159990170  0.0580930986485478  0.0610160672609777
  0.1074078581789518  0.2200863875001681  0.0626813835211847
  0.2731564944544558  0.2202305512464329  0.0645869264898683
  0.4481330092223056  0.2243433160138949  0.0628114348638035
  0.6157177062801350  0.2241991522676300  0.0609058918951199
  0.7740745248456186  0.2200863875001681  0.0626813835211847
  0.9398231611211226  0.2202305512464330  0.0645869264898683
  0.1160445708722336  0.3915189908046112  0.0622395011575897
  0.2810164520406325  0.3901109687273002  0.0609758791859672
  0.4394962965290239  0.3862440460427850  0.0632533172273985
  0.6078577486939585  0.3876520681200960  0.0645169391990210
  0.7827112375389003  0.3915189908046112  0.0622395011575897
  0.9476831187072990  0.3901109687273002  0.0609758791859672
  0.1054017085167241  0.5526598787583963  0.0637756312433199
  0.2762100791582536  0.5551939321555596  0.0642736400951269
  0.4501391588845334  0.5584364914223331  0.0617171871416683
  0.6126641215763373  0.5559024380251698  0.0612191782898613
  0.7720683751833908  0.5526598787583963  0.0637756312433199
  0.9428767458249203  0.5551939321555596  0.0642736400951269
  0.1170089230139217  0.7250712644922684  0.0612956205510934
  0.2774923860711385  0.7216592305775554  0.0616119733953484
  0.4385319443873358  0.7193584390217943  0.0641971978338948
  0.6113818146634524  0.7227704729365072  0.0638808449896398
  0.7836755896805884  0.7250712644922684  0.0612956205510934
  0.9441590527378051  0.7216592305775554  0.0616119733953484
  0.1055735514022404  0.8863366048655149  0.0644767511240105
  0.2798596662627383  0.8902926256451674  0.0633770034042490
  0.4499673159990171  0.8914264319818810  0.0610160672609777
  0.6090145344718526  0.8874704112022285  0.0621158149807392
  0.7722402180689071  0.8863366048655149  0.0644767511240105
  0.9465263329294049  0.8902926256451674  0.0633770034042490
