generated by phonopy
   1.0
    21.0960000000000001    0.0000000000000000    0.0000000000000000
   -10.5570000000000004   18.2852603755046346    0.0000000000000000
     0.0000000000000000    0.0000000000000000   19.3808031145446442
Mo Te
  36   72
Direct
  0.0555702992654072  0.1111257964859318  0.1509941913503998
  0.2222369659320739  0.1111257964859318  0.1603888770769997
  0.3889036325987405  0.1111257964859318  0.1574472221164565
  0.5555702992654071  0.1111257964859318  0.1520799391696179
  0.7222369659320739  0.1111257964859318  0.1623699101460787
  0.8889036325987406  0.1111257964859318  0.1536492533888644
  0.0555702992654072  0.2777924631525984  0.1591731049335550
  0.2222369659320738  0.2777924631525984  0.1588419129591284
  0.3889036325987405  0.2777924631525984  0.1513862481530300
  0.5555702992654070  0.2777924631525984  0.1619249476590347
  0.7222369659320736  0.2777924631525984  0.1549521399709579
  0.8889036325987404  0.2777924631525984  0.1539598711110938
  0.0555702992654072  0.4444591298192651  0.1601037322340012
  0.2222369659320739  0.4444591298192651  0.1510281524084274
  0.3889036325987406  0.4444591298192651  0.1611533951953881
  0.5555702992654071  0.4444591298192651  0.1563665637276834
  0.7222369659320739  0.4444591298192651  0.1527949441962939
  0.8889036325987406  0.4444591298192651  0.1624716592913807
  0.0555702992654072  0.6111257964859318  0.1510281524084274
  0.2222369659320739  0.6111257964859318  0.1601037322340012
  0.3889036325987406  0.6111257964859318  0.1578036512125192
  0.5555702992654071  0.6111257964859318  0.1518770990002594
  0.7222369659320738  0.6111257964859318  0.1622911883518169
  0.8889036325987406  0.6111257964859318  0.1539598711110938
  0.0555702992654072  0.7777924631525984  0.1588419129591284
  0.2222369659320739  0.7777924631525984  0.1591731049335550
  0.3889036325987406  0.7777924631525984  0.1512640071122555
  0.5555702992654071  0.7777924631525984  0.1617611151859839
  0.7222369659320738  0.7777924631525984  0.1552986831023006
  0.8889036325987406  0.7777924631525984  0.1536492533888644
  0.0555702992654072  0.9444591298192651  0.1603888770769998
  0.2222369659320739  0.9444591298192651  0.1509941913503998
  0.3889036325987406  0.9444591298192651  0.1609147462403637
  0.5555702992654071  0.9444591298192651  0.1567272576887007
  0.7222369659320738  0.9444591298192651  0.1525397691370377
  0.8889036325987405  0.9444591298192651  0.1624603240270015
  0.1081129034778436  0.0582294512603888  0.2515661625489781
  0.2763583007821862  0.0502066539519779  0.2496204316465838
  0.4493613069284269  0.0601799782843622  0.2513391629550977
  0.6057741972515693  0.0545483549763294  0.2509317887712675
  0.7801429102802612  0.0522852535183339  0.2497707910998956
  0.9465185261967463  0.0610152759333544  0.2517676804755809
  0.1083858736222169  0.2167084204979150  0.2496933235996248
  0.2832081600693311  0.2259605363279125  0.2510956502428134
  0.4397102340819861  0.2225930879507114  0.2511922886631285
  0.6121375659367005  0.2179513262026684  0.2496576549180435
  0.7810819318919743  0.2276737837219361  0.2516620746754453
  0.9388695484582096  0.2190045851553205  0.2504524689325389
  0.1167133408639310  0.3915057392342099  0.2508277864177761
  0.2739432773053072  0.3906140549539890  0.2514223652948768
  0.4440672642060344  0.3838852918777336  0.2496105221582706
  0.6154372639770018  0.3939892867386154  0.2514965272322910
  0.7722073042800726  0.3868847289342008  0.2507262517385222
  0.9477200517137528  0.3865075430411493  0.2498948263845562
  0.1084167948402428  0.5585261603152447  0.2516075621055770
  0.2760202006415427  0.5501331888415175  0.2496323543452154
  0.4495203065116110  0.5599838498870107  0.2512814401008124
  0.6058946119831878  0.5548903383403843  0.2509988940983297
  0.7798190515849958  0.5520131744714061  0.2497366404393152
  0.9468415045302752  0.5610457944176157  0.2517473306202505
  0.1080831106570603  0.7167213299345798  0.2497217796822792
  0.2832839525094484  0.7256997039029986  0.2510303279965153
  0.4399092300560755  0.7229372826772602  0.2512532648897863
  0.6117893292602745  0.7177409236197119  0.2496394949653634
  0.7813597047359363  0.7276176499538723  0.2516259611348894
  0.9388374879417559  0.7192918401552222  0.2505200717245638
  0.1167011638432240  0.8911965918422659  0.2507589692164386
  0.2742083508729594  0.8909388340225032  0.2514733810605545
  0.4437165305395523  0.8837497861268422  0.2496094939701053
  0.6156523778420336  0.8938500278093197  0.2514469191530791
  0.7722635267990491  0.8872108932791399  0.2507951980607979
  0.9474279639234140  0.8862002522536739  0.2498500404530117
  0.1140946305900807  0.0528669189203408  0.0636044702404773
  0.2791825666190713  0.0608897162287517  0.0616587393380830
  0.4395128938061639  0.0509163918963674  0.0633774706465969
  0.6164333368163548  0.0565480152044002  0.0629700964627668
  0.7753979571209964  0.0588111166623957  0.0618090987913948
  0.9423556745378444  0.0500810942473752  0.0638059881670801
  0.1138216604457074  0.2277212830161480  0.0617316312911241
  0.2723327073319265  0.2184691671861505  0.0631339579343126
  0.4491639666526046  0.2218366155633516  0.0632305963546277
  0.6100699681312236  0.2264783773113946  0.0616959626095427
  0.7744589355092832  0.2167559197921269  0.0637003823669445
  0.9500046522763813  0.2254251183587425  0.0624907766240382
  0.1054941932039934  0.3862572976131863  0.0628660941092754
  0.2815975900959504  0.3871489818934072  0.0634606729863760
  0.4448069365285564  0.3938777449696627  0.0616488298497698
  0.6067702700909225  0.3837737501087808  0.0635348349237902
  0.7833335631211850  0.3908783079131954  0.0627645594300214
  0.9411541490208380  0.3912554938062470  0.0619331340760554
  0.1137907392276815  0.5525702098654847  0.0636458697970762
  0.2795206667597149  0.5609631813392119  0.0616706620367147
  0.4393538942229799  0.5511125202937188  0.0633197477923116
  0.6163129220847362  0.5562060318403450  0.0630372017898289
  0.7757218158162619  0.5590831957093233  0.0617749481308145
  0.9420326962043156  0.5500505757631138  0.0637856383117497
  0.1141244234108640  0.7277083735794828  0.0617600873737784
  0.2722569148918091  0.7187299996110640  0.0630686356880146
  0.4489649706785152  0.7214924208368024  0.0632915725812856
  0.6104182048076497  0.7266887798943508  0.0616778026568627
  0.7741811626653212  0.7168120535601903  0.0636642688263886
  0.9500367127928346  0.7251378633588405  0.0625583794160630
  0.1055063702247002  0.8865664450051300  0.0627972769079378
  0.2813325165282982  0.8868242028248927  0.0635116887520537
  0.4451576701950384  0.8940132507205538  0.0616478016616045
  0.6065551562258906  0.8839130090380762  0.0634852268445783
  0.7832773406022084  0.8905521435682560  0.0628335057522971
  0.9414462368111768  0.8915627845937220  0.0618883481445109
