generated by phonopy
   1.0
    21.0960000000000001    0.0000000000000000    0.0000000000000000
   -10.5570000000000004   18.2852603755046346    0.0000000000000000
     0.0000000000000000    0.0000000000000000   19.3808031145446442
Mo Te
  36   72
Direct
  0.0528088253581960  0.1179037534275983  0.1567272576887007
  0.2143174363610135  0.1034306225162842  0.1567272576887007
  0.3956041203368031  0.1081752634367164  0.1567272576887007
  0.5601571417574109  0.1202885059177504  0.1567272576887007
  0.7132550755104524  0.1095189831857005  0.1567272576887007
  0.8887842007376969  0.1027622834907721  0.1567272576887007
  0.0491142856958076  0.2690901213826761  0.1567272576887007
  0.2303324908126687  0.2770988109176069  0.1567272576887007
  0.3913330958301493  0.2868398135146241  0.1567272576887007
  0.5462664085110318  0.2739861463062437  0.1567272576887007
  0.7244350697844644  0.2706382978046399  0.1567272576887007
  0.8971142309550605  0.2851571171452381  0.1567272576887007
  0.0645521896870287  0.4460659431194964  0.1567272576887007
  0.2223563977931175  0.4528226428144247  0.1567272576887007
  0.3798623391850255  0.4386924743128977  0.1567272576887007
  0.5599478238821258  0.4389638346384996  0.1567272576887007
  0.7291009671398025  0.4529590340025168  0.1567272576887007
  0.8811120926103230  0.4457267445755407  0.1567272576887007
  0.0533721954130165  0.6182799618338902  0.1567272576887007
  0.2140263675757539  0.6037611424932920  0.1567272576887007
  0.3951855220087095  0.6076346610788488  0.1567272576887007
  0.5606564128846325  0.6202268706195009  0.1567272576887007
  0.7134253464779593  0.6100902416943023  0.1567272576887007
  0.8882002402750819  0.6025397863609294  0.1567272576887007
  0.0487062980576784  0.7692925589693467  0.1567272576887007
  0.2300285059204916  0.7765248483963227  0.1567272576887007
  0.3918922794053492  0.7869228532772634  0.1567272576887007
  0.5462922668027672  0.7745188065291259  0.1567272576887007
  0.7238630248179567  0.7702903236205491  0.1567272576887007
  0.8973728962596732  0.7847975322435116  0.1567272576887007
  0.0643819187195217  0.9454946846108946  0.1567272576887007
  0.2229403582557324  0.9530451399442672  0.1567272576887007
  0.3797421600294195  0.9391530672492693  0.1567272576887007
  0.5594236381008053  0.9385122478979064  0.1567272576887007
  0.7294818657010287  0.9527230511772715  0.1567272576887007
  0.8814468271512182  0.9462957044004997  0.1567272576887007
  0.0990994808850137  0.0590844256092891  0.2513073514383452
  0.2864636132905546  0.0643974149024071  0.2515320987604951
  0.4521175748135989  0.0476105166445352  0.2496990119926660
  0.5985904747971887  0.0506469910186132  0.2503860049534257
  0.7763138177231733  0.0659236083375483  0.2518773953174661
  0.9576748839302206  0.0552888534888570  0.2504486149540025
  0.1220509281440048  0.2293130671894427  0.2512997356802087
  0.2824871636575652  0.2127613053668207  0.2495835809578844
  0.4311439331756974  0.2198186390947987  0.2506757810957424
  0.6129987895749098  0.2328602258604296  0.2518486975599760
  0.7901210550084603  0.2193162706500608  0.2501731124958299
  0.9363991285874268  0.2130111732704948  0.2498335981526715
  0.1125603830114176  0.3785060951765146  0.2495388076845237
  0.2645326501377036  0.3891408500252059  0.2509675880479872
  0.4495646901909932  0.3991279553774471  0.2517483319572814
  0.6217911911275212  0.3835258163224510  0.2499312253644038
  0.7673271352931107  0.3812988993724445  0.2500542735222082
  0.9389439616789255  0.3980086618774858  0.2518101784501253
  0.0987531457261305  0.5584467661973355  0.2512430905061598
  0.2858084054804975  0.5647518635769014  0.2515826048493182
  0.4527897970851872  0.5480718804547572  0.2497381522177902
  0.5989113328455038  0.5500630693163067  0.2503160313082631
  0.7754820071479221  0.5657526753718456  0.2518730585681818
  0.9577677516381090  0.5559577937910700  0.2505207456105454
  0.1215470654414802  0.7297974708082848  0.2513619294797815
  0.2832635723889987  0.7130877083032436  0.2496060245518644
  0.4312616258785940  0.7191718892570976  0.2506024243064606
  0.6121638428734694  0.7328555032123298  0.2518627401492946
  0.7904186479075036  0.7199653694374076  0.2502394847852054
  0.9370860585998989  0.7126930473102259  0.2497865433290417
  0.1133921935866688  0.8786770281422172  0.2495431444338080
  0.2644397824298151  0.8884719097229926  0.2508954573914443
  0.4487790701353340  0.8992897397882991  0.2517798715376707
  0.6222748103614022  0.8841142883309042  0.2499876688715703
  0.7678722129233605  0.8808444208868281  0.2499946600829620
  0.9381892318563186  0.8976462382756457  0.2517833854619181
  0.0990994808850137  0.0590844256092891  0.0621471592551438
  0.2864636132905546  0.0643974149024071  0.0619224119329938
  0.4521175748135989  0.0476105166445352  0.0637554987008229
  0.5985904747971887  0.0506469910186133  0.0630685057400633
  0.7763138177231732  0.0659236083375483  0.0615771153760229
  0.9576748839302206  0.0552888534888570  0.0630058957394865
  0.1220509281440048  0.2293130671894427  0.0621547750132802
  0.2824871636575652  0.2127613053668207  0.0638709297356045
  0.4311439331756975  0.2198186390947988  0.0627787295977466
  0.6129987895749098  0.2328602258604296  0.0616058131335129
  0.7901210550084603  0.2193162706500607  0.0632813981976590
  0.9363991285874268  0.2130111732704948  0.0636209125408175
  0.1125603830114176  0.3785060951765146  0.0639157030089653
  0.2645326501377036  0.3891408500252059  0.0624869226455017
  0.4495646901909932  0.3991279553774471  0.0617061787362076
  0.6217911911275212  0.3835258163224510  0.0635232853290851
  0.7673271352931107  0.3812988993724446  0.0634002371712808
  0.9389439616789255  0.3980086618774858  0.0616443322433637
  0.0987531457261305  0.5584467661973355  0.0622114201873292
  0.2858084054804975  0.5647518635769013  0.0618719058441707
  0.4527897970851873  0.5480718804547572  0.0637163584756987
  0.5989113328455038  0.5500630693163067  0.0631384793852259
  0.7754820071479220  0.5657526753718455  0.0615814521253072
  0.9577677516381090  0.5559577937910700  0.0629337650829435
  0.1215470654414802  0.7297974708082848  0.0620925812137074
  0.2832635723889987  0.7130877083032436  0.0638484861416245
  0.4312616258785940  0.7191718892570976  0.0628520863870284
  0.6121638428734694  0.7328555032123298  0.0615917705441944
  0.7904186479075036  0.7199653694374076  0.0632150259082835
  0.9370860585998989  0.7126930473102259  0.0636679673644473
  0.1133921935866689  0.8786770281422172  0.0639113662596810
  0.2644397824298151  0.8884719097229926  0.0625590533020447
  0.4487790701353340  0.8992897397882991  0.0616746391558183
  0.6222748103614022  0.8841142883309042  0.0634668418219187
  0.7678722129233606  0.8808444208868283  0.0634598506105270
  0.9381892318563186  0.8976462382756457  0.0616711252315708
