generated by phonopy
   1.0
    21.0960000000000001    0.0000000000000000    0.0000000000000000
   -10.5570000000000004   18.2852603755046346    0.0000000000000000
     0.0000000000000000    0.0000000000000000   19.3808031145446442
Mo Te
  36   72
Direct
  0.0551941751713077  0.1100469379393159  0.1567272576887007
  0.2223211948236987  0.1121884186548198  0.1567272576887007
  0.3891894924987521  0.1110658921704900  0.1567272576887007
  0.5551797275857098  0.1101273709917410  0.1567272576887007
  0.7223696635747457  0.1122556670665287  0.1567272576887007
  0.8891519983732894  0.1109133921162379  0.1567272576887007
  0.0552115438158081  0.2774722723956607  0.1567272576887007
  0.2225803936173328  0.2789597460803029  0.1567272576887007
  0.3888943525365409  0.2768617309695648  0.1567272576887007
  0.5552368165921194  0.2776226027101312  0.1567272576887007
  0.7226036238982909  0.2789052268885936  0.1567272576887007
  0.8888441849462450  0.2767698263426111  0.1567272576887007
  0.0554552533499883  0.4450996170538675  0.1567272576887007
  0.2226229218965286  0.4449946279502973  0.1567272576887007
  0.3886050674192859  0.4432447740901264  0.1567272576887007
  0.5555043017473514  0.4452250003648506  0.1567272576887007
  0.7226062575886811  0.4448527376287841  0.1567272576887007
  0.8885738773872515  0.4432714480515731  0.1567272576887007
  0.0557715460181084  0.6123228746085320  0.1567272576887007
  0.2224219483237816  0.6106916609498838  0.1567272576887007
  0.3885041488018866  0.6103939612690655  0.1567272576887007
  0.5558134251187279  0.6123442058593920  0.1567272576887007
  0.7223759030354049  0.6105519189236908  0.1567272576887007
  0.8885116142998565  0.6105223850622433  0.1567272576887007
  0.0559608709451045  0.7787908886467891  0.1567272576887007
  0.2221042682894019  0.7766625925720014  0.1567272576887007
  0.3886552668241917  0.7780048675222923  0.1567272576887007
  0.5559691589819972  0.7786947098278901  0.1567272576887007
  0.7220578922594493  0.7766131628943004  0.1567272576887007
  0.8886966778262855  0.7781540178327501  0.1567272576887007
  0.0559037819386949  0.9446289902617321  0.1567272576887007
  0.2218703079658567  0.9433463660832697  0.1567272576887007
  0.3889630802512362  0.9454817666292522  0.1567272576887007
  0.5558732499414127  0.9444759811466141  0.1567272576887007
  0.7218528601000566  0.9434184342238283  0.1567272576887007
  0.8890123103165399  0.9455575436628189  0.1567272576887007
  0.1107568372333823  0.0577837264507928  0.2458222186668620
  0.2634435273612363  0.0449242915894131  0.2522475783941805
  0.4601375107794771  0.0646977773395631  0.2539441983958878
  0.6086052721913262  0.0563668852108113  0.2457006497529451
  0.7647475442560494  0.0455212299179909  0.2528382582484408
  0.9608916214348407  0.0654749074767405  0.2534327631234710
  0.0983363394898027  0.2156070194480082  0.2464323297616325
  0.2748903991431601  0.2179269932864858  0.2552680886707547
  0.4602909272841691  0.2334177829892469  0.2500971466197217
  0.5969939910613903  0.2144970487545210  0.2468028463230538
  0.7770373988582645  0.2192827318190450  0.2555041371134106
  0.9593324357602511  0.2330748716172726  0.2494736678973242
  0.0939708856835249  0.3775992320960621  0.2497400499955434
  0.2881543013974417  0.3936349297113622  0.2554116766480712
  0.4504420726227942  0.3950697944803621  0.2466355498144447
  0.5942846492619458  0.3774964188842590  0.2503688909890994
  0.7897897293854377  0.3948941251605031  0.2551441693503693
  0.9483756967699197  0.3938231863686346  0.2462933839768110
  0.1004146658887987  0.5467095044917040  0.2536585195274638
  0.2948669614184968  0.5663439114414287  0.2525877518401335
  0.4368046462077892  0.5528175867887036  0.2457433494407222
  0.6021865862163187  0.5476787142120091  0.2541489455304987
  0.7949590166956672  0.5667121301098855  0.2519854607045642
  0.9349340745120152  0.5514537742104573  0.2458983708953201
  0.1136022618765981  0.7213961516365849  0.2557155532490445
  0.2907933231452081  0.7322418069294051  0.2485779447535490
  0.4279825792997498  0.7122881293706554  0.2479834398785188
  0.6157144241624574  0.7228259042665335  0.2557581516575880
  0.7892839275043569  0.7314867375279462  0.2480208587436900
  0.9274879662710757  0.7116675495754478  0.2485378446923561
  0.1252135430065340  0.8965993214262085  0.2546133566789359
  0.2785034685429929  0.8918136383616843  0.2459120658885791
  0.4295417649743398  0.8780214985634569  0.2519425351046656
  0.6263333718390873  0.8975875777559540  0.2541812519104721
  0.7763449084305305  0.8904116585461395  0.2457516537925437
  0.9307351648354468  0.8785356789360885  0.2525465460717182
  0.1107568372333823  0.0577837264507928  0.0676322920266269
  0.2634435273612363  0.0449242915894130  0.0612069322993084
  0.4601375107794772  0.0646977773395631  0.0595103122976011
  0.6086052721913262  0.0563668852108113  0.0677538609405438
  0.7647475442560494  0.0455212299179909  0.0606162524450482
  0.9608916214348409  0.0654749074767406  0.0600217475700180
  0.0983363394898027  0.2156070194480081  0.0670221809318564
  0.2748903991431601  0.2179269932864858  0.0581864220227343
  0.4602909272841692  0.2334177829892469  0.0633573640737673
  0.5969939910613903  0.2144970487545210  0.0666516643704351
  0.7770373988582645  0.2192827318190450  0.0579503735800784
  0.9593324357602512  0.2330748716172726  0.0639808427961648
  0.0939708856835248  0.3775992320960621  0.0637144606979455
  0.2881543013974417  0.3936349297113622  0.0580428340454177
  0.4504420726227942  0.3950697944803622  0.0668189608790442
  0.5942846492619457  0.3774964188842589  0.0630856197043896
  0.7897897293854377  0.3948941251605032  0.0583103413431197
  0.9483756967699198  0.3938231863686346  0.0671611267166779
  0.1004146658887987  0.5467095044917040  0.0597959911660252
  0.2948669614184968  0.5663439114414287  0.0608667588533554
  0.4368046462077891  0.5528175867887036  0.0677111612527667
  0.6021865862163186  0.5476787142120090  0.0593055651629903
  0.7949590166956672  0.5667121301098855  0.0614690499889248
  0.9349340745120152  0.5514537742104573  0.0675561397981688
  0.1136022618765982  0.7213961516365849  0.0577389574444444
  0.2907933231452082  0.7322418069294052  0.0648765659399400
  0.4279825792997498  0.7122881293706554  0.0654710708149701
  0.6157144241624574  0.7228259042665335  0.0576963590359010
  0.7892839275043571  0.7314867375279464  0.0654336519497990
  0.9274879662710757  0.7116675495754476  0.0649166660011328
  0.1252135430065340  0.8965993214262085  0.0588411540145531
  0.2785034685429928  0.8918136383616843  0.0675424448049099
  0.4295417649743398  0.8780214985634569  0.0615119755888234
  0.6263333718390873  0.8975875777559540  0.0592732587830168
  0.7763449084305305  0.8904116585461395  0.0677028569009452
  0.9307351648354468  0.8785356789360885  0.0609079646217707
